 | Materials Studio CASTEP version 2017            |
 | Ab Initio Total Energy Program                  |
 | Authors:                                        |
 | M. Segall, M. Probert, C. Pickard, P. Hasnip,   |
 | S. Clark, K. Refson, J. R. Yates, M. Payne      |
 | Contributors:                                   |
 | P. Lindan, P. Haynes, J. White, V. Milman,      |
 | N. Govind, M. Gibson, P. Tulip, V. Cocula,      |
 | B. Montanari, D. Quigley, M. Glover,            |
 | L. Bernasconi, A. Perlov, M. Plummer,           |
 | E. McNellis, J. Meyer, J. Gale, D. Jochym       |
 | J. Aarons, B. Walker, R. Gillen, D. Jones       |
 | T. Green, I. J. Bush, C. J. Armstrong,          |
 | E. J. Higgins, E. L. Brown, M. S. McFly         |
 | Copyright (c) 2000 - 2016                       |
 | Please cite                                     |
 |     "First principles methods using CASTEP"     |
 |         Zeitschrift fuer Kristallographie       |
 |           220(5-6) pp. 567-570 (2005)           |
 | S. J. Clark, M. D. Segall, C. J. Pickard,       |
 | P. J. Hasnip, M. J. Probert, K. Refson,         |
 | M. C. Payne                                     |
 |       in all publications arising from          |
 |              your use of CASTEP                 |

 This version was compiled for x86_64-windows-msvc2008 on May 05 2016
 Intel(R) Math Kernel Library Version 11.1.2
 Fundamental constants values: CODATA 2010

 Atomic calculation performed for O: 1s2 2s2 2p4

 Converged in 61 iterations to an ae energy of -2040.902 eV

 Identity difference: 4.10E-04

   | Pseudopotential Report - Date of generation  1-08-2019   |
   | Element: O Ionic charge:  6.00 Level of theory: PBE      |
   | Atomic Solver: Koelling-Harmon                           |
   |               Reference Electronic Structure             |
   |         Orbital         Occupation         Energy        |
   |            2s              2.000           -0.881        |
   |            2p              4.000           -0.332        |
   |                 Pseudopotential Definition               |
   |        Beta     l      e      Rc     scheme   norm       |
   |          1      0   -0.881   1.100     qc      0         |
   |          2      0    0.250   1.100     qc      0         |
   |          3      1   -0.332   1.100     qc      0         |
   |          4      1    0.250   1.100     qc      0         |
   |         loc     2    0.000   1.100     pn      0         |
   | Augmentation charge Rinner = 0.769                       |
   | Partial core correction Rc = 0.769                       |
   | "2|1.1|14|18|21|20UU:21UU(qc=7)[]"                       |
   |      Author: Chris J. Pickard, Cambridge University      |

 Doing a self consistent calculation for the test configuration

 Atomic calculation performed for O: 1s2 2s2 2p4

[...]

 AE eigenvalue nl 10 =      -18.91475256
 AE eigenvalue nl 20 =       -0.88057101
 AE eigenvalue nl 21 =       -0.33186952
 PS eigenvalue nl 20 =       -0.88059206
 PS eigenvalue nl 21 =       -0.33182157
 Maximum eigenvalue error:   4.80E-05

 Derived cutoff energies: C=  14 M=  17 F=  20 E=  22

 Atomic calculation performed for Zr: 1s2 2s2 2p6 3s2 3p6 3d10 4s2 4p6 4d2 5s2

[...]

 Identity difference: 3.51E-03

 Warning: ion_atom_descreen_psp: negative charge density encountered
   | Pseudopotential Report - Date of generation  1-08-2019   |
   | Element: Zr Ionic charge: 12.00 Level of theory: PBE     |
   | Atomic Solver: Koelling-Harmon                           |
   |               Reference Electronic Structure             |
   |         Orbital         Occupation         Energy        |
   |            4s              2.000           -2.003        |
   |            4p              6.000           -1.193        |
   |            5s              2.000           -0.163        |
   |            4d              2.000           -0.132        |
   |                 Pseudopotential Definition               |
   |        Beta     l      e      Rc     scheme   norm       |
   |          1      0   -2.003   2.105     qc      0         |
   |          2      0   -0.163   2.105     qc      0         |
   |          3      0    0.250   2.105     qc      0         |
   |          4      1   -1.193   2.105     qc      0         |
   |          5      1    0.250   2.105     qc      0         |
   |          6      2   -0.132   2.105     qc      0         |
   |          7      2    0.250   2.105     qc      0         |
   |         loc     3    0.000   2.105     pn      0         |
   | Augmentation charge Rinner = 1.471                       |
   | Partial core correction Rc = 1.471                       |
   | "3|2.1|7|8.5|10|40U:50UU:41UU:42UU[]"                    |
   |      Author: Chris J. Pickard, Cambridge University      |

 Doing a self consistent calculation for the test configuration

 Atomic calculation performed for Zr: 1s2 2s2 2p6 3s2 3p6 3d10 4s2 4p6 4d2 5s2

 Converged in 73 iterations to an ae energy of -97920.939 eV

 AE eigenvalue nl 10 =     -655.06067880
 AE eigenvalue nl 20 =      -90.76498789
 AE eigenvalue nl 21 =      -80.93874037
 AE eigenvalue nl 30 =      -14.87502158
 AE eigenvalue nl 31 =      -11.67370557
 AE eigenvalue nl 32 =       -6.42038308
 AE eigenvalue nl 40 =       -2.00301768
 AE eigenvalue nl 41 =       -1.19294539
 AE eigenvalue nl 42 =       -0.13226232
 AE eigenvalue nl 50 =       -0.16314883
 PS eigenvalue nl 40 =       -2.00291116
 PS eigenvalue nl 41 =       -1.19285147
 PS eigenvalue nl 42 =       -0.13221549
 PS eigenvalue nl 50 =       -0.16312561
 Maximum eigenvalue error:   1.07E-04

 Derived cutoff energies: C=   6 M=   6 F=   9 E=   9

 Pseudo atomic calculation performed for O 2s2 2p4

 Converged in 24 iterations to a total energy of -432.6196 eV

 Pseudo atomic calculation performed for Zr 4s2 4p6 4d2 5s2

 Converged in 25 iterations to a total energy of -1285.8359 eV

 Calculation not parallelised.

 ************************************ Title ************************************
 CASTEP calculation from Materials Studio

 ***************************** General Parameters ******************************

 output verbosity                               : normal  (1)
 write checkpoint data to                       : ZrO2_cubic.check
 type of calculation                            : geometry optimization
 stress calculation                             : on
 density difference calculation                 : off
 electron localisation func (ELF) calculation   : off
 Hirshfeld analysis                             : off
 unlimited duration calculation
 timing information                             : on
 write final potential to formatted file        : off
 write final density to formatted file          : off
 write BibTeX reference list                    : on
 write OTFG pseudopotential files               : on
 checkpoint writing                             : both castep_bin and check files

 output         length unit                     : A
 output           mass unit                     : amu
 output           time unit                     : ps
 output         charge unit                     : e
 output           spin unit                     : hbar/2
 output         energy unit                     : eV
 output          force unit                     : eV/A
 output       velocity unit                     : A/ps
 output       pressure unit                     : GPa
 output     inv_length unit                     : 1/A
 output      frequency unit                     : cm-1
 output force constant unit                     : eV/A**2
 output         volume unit                     : A**3
 output   IR intensity unit                     : (D/A)**2/amu
 output         dipole unit                     : D
 output         efield unit                     : eV/A/e
 output        entropy unit                     : J/mol/K

 wavefunctions paging                           : none
 random number generator seed                   : randomised (155617388)
 data distribution                              : optimal for this architecture

 *********************** Exchange-Correlation Parameters ***********************

 using functional                               : Perdew Burke Ernzerhof
 relativistic treatment                         : Koelling-Harmon
 DFT+D: Semi-empirical dispersion correction    : off

 ************************* Pseudopotential Parameters **************************

 pseudopotential representation                 : reciprocal space
 <beta|phi> representation                      : reciprocal space
 spin-orbit coupling                            : off

 **************************** Basis Set Parameters *****************************

 plane wave basis set cut-off                   :   571.4000   eV
 size of standard grid                          :     1.7500
 size of   fine   grid                          :     2.1000
 size of   fine   gmax                          :    25.7175   1/A
 largest prime factor in FFT                    :          5
 finite basis set correction                    : automatic
 number of sample energies                      :          3
           sample  spacing                      :     5.0000   eV

 **************************** Electronic Parameters ****************************

 number of  electrons                           :  24.00
 net charge of system                           :  0.000
 treating system as non-spin-polarized
 number of bands                                :         16

 ********************* Electronic Minimization Parameters **********************

 Method: Treating system as metallic with density mixing treatment of electrons,
         and number of  SD  steps               :          1
         and number of  CG  steps               :          4

 total energy / atom convergence tol.           : 0.1000E-05   eV
 eigen-energy convergence tolerance             : 0.1875E-06   eV
 max force / atom convergence tol.              : ignored
 convergence tolerance window                   :          3   cycles
 max. number of SCF cycles                      :        100
 number of fixed-spin iterations                :         10
 smearing scheme                                : Gaussian
 smearing width                                 : 0.1000       eV
 Fermi energy convergence tolerance             : 0.2721E-13   eV
 periodic dipole correction                     : NONE

 ************************** Density Mixing Parameters **************************

 density-mixing scheme                          : Pulay
 max. length of mixing history                  :         20
 charge density mixing amplitude                : 0.5000
 cut-off energy for mixing                      :  571.4       eV
 charge density mixing g-vector                 :  1.500       1/A

 ********************** Geometry Optimization Parameters ***********************

 optimization method                            : BFGS
 variable cell method                           : fixed basis quality
 max. number of steps                           :        100
 estimated bulk modulus                         :  200.0       GPa
 estimated <frequency>                          :  1668.       cm-1
 geom line minimiser                            : on
 with line minimiser tolerance                  :     0.4000
 total energy convergence tolerance             : 0.1000E-04   eV/atom
        max ionic |force| tolerance             : 0.3000E-01   eV/A
 max ionic |displacement| tolerance             : 0.1000E-02   A
   max |stress component| tolerance             : 0.5000E-01   GPa
 convergence tolerance window                   :          2   steps
 backup results every                           :          5   steps

                                      Unit Cell
        Real Lattice(A)                      Reciprocal Lattice(1/A)
   0.0000000   2.5350000   2.5350000       -1.2392870   1.2392870   1.2392870
   2.5350000  -0.0000000   2.5350000        1.2392870  -1.2392870   1.2392870
   2.5350000   2.5350000   0.0000000        1.2392870   1.2392870  -1.2392870

                       Lattice parameters(A)       Cell Angles
                    a =    3.585031          alpha =   60.000000
                    b =    3.585031          beta  =   60.000000
                    c =    3.585031          gamma =   60.000000

                       Current cell volume =   32.580961       A**3

                                     Cell Contents
                         Total number of ions in cell =    3
                      Total number of species in cell =    2
                        Max number of any one species =    2

            x  Element    Atom        Fractional coordinates of atoms  x
            x            Number           u          v          w      x
            x  O            1         0.250000   0.250000   0.250000   x
            x  O            2        -0.250000  -0.250000   0.750000   x
            x  Zr           1         0.000000   0.000000   0.000000   x

                         No user defined ionic velocities

                                   Details of Species

                               Mass of species in AMU
                                    O   15.9989996
                                    Zr   91.2200012

                          Electric Quadrupole Moment (Barn)
                                    O   -0.0255800 Isotope 17
                                    Zr   -0.1760000 Isotope 91

                          Files used for pseudopotentials:
                                    O 2|1.1|14|18|21|20UU:21UU(qc=7)[]
                                    Zr 3|2.1|7|8.5|10|40U:50UU:41UU:42UU[]

                              k-Points For BZ Sampling
                       MP grid size for SCF calculation is  9  9  9
                            with an offset of   0.000  0.000  0.000
                       Number of kpoints used =            35

                               Symmetry and Constraints

                      Maximum deviation from symmetry = 0.200000E-14     ANG

                      Number of symmetry operations   =          48
         There are no ionic constraints specified or generated for this cell
                      Point group of crystal =    32: Oh, m-3m, 4/m -3 2/m
                      Space group of crystal =   225: Fm-3m, -F 4 2 3

             Set iprint > 1 for details on symmetry rotations/translations

                         Centre of mass is NOT constrained

                         Number of cell constraints= 5
                         Cell constraints are:  1 1 1 0 0 0

                         External pressure/stress (GPa)
                          0.00000   0.00000   0.00000
                                    0.00000   0.00000
                                              0.00000

Final energy, E             =  -2178.612632194     eV
Final free energy (E-TS)    =  -2178.612632194     eV
(energies not corrected for finite basis set)

NB est. 0K energy (E-0.5TS)      =  -2178.612632194     eV

Calculating total energy with cut-off of  566.400eV.
------------------------------------------------------------------------ <-- SCF
SCF loop      Energy           Fermi           Energy gain       Timer   <-- SCF
                               energy          per atom          (sec)   <-- SCF
------------------------------------------------------------------------ <-- SCF
Initial  -2.17861286E+003  0.00000000E+000                        25.72  <-- SCF
      1  -2.17862862E+003  1.15589794E+001   5.25262058E-003      26.72  <-- SCF
      2  -2.17862862E+003  1.15589794E+001   2.34989475E-007      27.55  <-- SCF
      3  -2.17862862E+003  1.15585277E+001   1.77755052E-006      28.39  <-- SCF
      4  -2.17862863E+003  1.15591545E+001   1.16293373E-006      29.20  <-- SCF
      5  -2.17862863E+003  1.15584453E+001   1.78694120E-007      30.22  <-- SCF
      6  -2.17862862E+003  1.15588353E+001  -2.72835901E-007      31.14  <-- SCF
------------------------------------------------------------------------ <-- SCF

[...]

Calculating total energy with cut-off of  571.400eV.
------------------------------------------------------------------------ <-- SCF
SCF loop      Energy           Fermi           Energy gain       Timer   <-- SCF
                               energy          per atom          (sec)   <-- SCF
------------------------------------------------------------------------ <-- SCF
Initial  -2.17862885E+003  0.00000000E+000                        31.47  <-- SCF
      1  -2.17864298E+003  1.15589984E+001   4.71012776E-003      32.78  <-- SCF
      2  -2.17864298E+003  1.15589984E+001   2.17649336E-007      33.69  <-- SCF
      3  -2.17864299E+003  1.15584169E+001   1.39484974E-006      34.56  <-- SCF
      4  -2.17864299E+003  1.15590240E+001   1.08132996E-006      35.58  <-- SCF
      5  -2.17864299E+003  1.15583014E+001   1.75708819E-007      36.45  <-- SCF
      6  -2.17864299E+003  1.15587043E+001  -2.97394386E-007      37.41  <-- SCF
------------------------------------------------------------------------ <-- SCF

[...]

 For future reference: finite basis dEtot/dlog(Ecut) =      -1.713074eV
 Total energy corrected for finite basis set =   -2178.642860 eV

 ***************** Stress Tensor *****************
 *          Cartesian components (GPa)           *
 *             x             y             z     *
 *  x     -6.467361      0.000000      0.000000  *
 *  y      0.000000     -6.467361      0.000000  *
 *  z      0.000000      0.000000     -6.467361  *
 *  Pressure:    6.4674                          *
 BFGS: finished iteration     0 with enthalpy= -2.17864286E+003 eV

 +-----------+-----------------+-----------------+------------+-----+ <-- BFGS
 | Parameter |      value      |    tolerance    |    units   | OK? | <-- BFGS
 +-----------+-----------------+-----------------+------------+-----+ <-- BFGS
 |  dE/ion   |   0.000000E+000 |   1.000000E-005 |         eV | No  | <-- BFGS
 |   Smax    |   6.467361E+000 |   5.000000E-002 |        GPa | No  | <-- BFGS
 +-----------+-----------------+-----------------+------------+-----+ <-- BFGS

 Starting BFGS iteration          1 ...

 +------------+-------------+-------------+-----------------+ <-- min BFGS
 |    Step    |   lambda    |   F.delta'  |    enthalpy     | <-- min BFGS
 +------------+-------------+-------------+-----------------+ <-- min BFGS
 |  previous  |    0.000000 |    0.083713 |    -2178.642860 | <-- min BFGS
 +------------+-------------+-------------+-----------------+ <-- min BFGS

 BFGS: starting iteration         1 with trial guess (lambda=  1.000000)

[...]

------------------------------------------------------------------------ <-- SCF
SCF loop      Energy           Fermi           Energy gain       Timer   <-- SCF
                               energy          per atom          (sec)   <-- SCF
------------------------------------------------------------------------ <-- SCF
Initial  -2.17832260E+003  0.00000000E+000                        38.75  <-- SCF
      1  -2.17884628E+003  1.08126730E+001   1.74558489E-001      39.62  <-- SCF
      2  -2.17885168E+003  1.08126498E+001   1.79977615E-003      40.86  <-- SCF
      3  -2.17868388E+003  1.08706314E+001  -5.59323732E-002      41.88  <-- SCF
      4  -2.17865915E+003  1.10012051E+001  -8.24357147E-003      42.95  <-- SCF
      5  -2.17865495E+003  1.10652959E+001  -1.40156252E-003      43.97  <-- SCF
      6  -2.17865501E+003  1.10649814E+001   2.18233586E-005      45.12  <-- SCF
      7  -2.17865501E+003  1.10653864E+001   9.85187405E-007      45.84  <-- SCF
      8  -2.17865502E+003  1.10659106E+001   2.94956906E-007      46.48  <-- SCF
      9  -2.17865502E+003  1.10659397E+001   6.29531181E-008      47.11  <-- SCF
------------------------------------------------------------------------ <-- SCF

[...]

 ***************** Stress Tensor *****************
 *          Cartesian components (GPa)           *
 *             x             y             z     *
 *  x      1.430733     -0.000000      0.000000  *
 *  y     -0.000000      1.430733      0.000000  *
 *  z      0.000000      0.000000      1.430733  *
 *  Pressure:   -1.4307                          *

 +------------+-------------+-------------+-----------------+ <-- min BFGS
 |    Step    |   lambda    |   F.delta'  |    enthalpy     | <-- min BFGS
 +------------+-------------+-------------+-----------------+ <-- min BFGS
 |  previous  |    0.000000 |    0.083713 |    -2178.642860 | <-- min BFGS
 | trial step |    1.000000 |   -0.018921 |    -2178.655791 | <-- min BFGS
 +------------+-------------+-------------+-----------------+ <-- min BFGS

 BFGS: finished iteration     1 with enthalpy= -2.17865579E+003 eV

[...]

 +-----------+-----------------+-----------------+------------+-----+ <-- BFGS
 | Parameter |      value      |    tolerance    |    units   | OK? | <-- BFGS
 +-----------+-----------------+-----------------+------------+-----+ <-- BFGS
 |  dE/ion   |   4.735349E-004 |   1.000000E-005 |         eV | No  | <-- BFGS
 |   Smax    |   5.910158E-002 |   5.000000E-002 |        GPa | No  | <-- BFGS
 +-----------+-----------------+-----------------+------------+-----+ <-- BFGS

 Starting BFGS iteration          3 ...

 +------------+-------------+-------------+-----------------+ <-- min BFGS
 |    Step    |   lambda    |   F.delta'  |    enthalpy     | <-- min BFGS
 +------------+-------------+-------------+-----------------+ <-- min BFGS
 |  previous  |    0.000000 |    0.000779 |    -2178.657212 | <-- min BFGS
 +------------+-------------+-------------+-----------------+ <-- min BFGS

 BFGS: starting iteration         3 with trial guess (lambda=  1.000000)

[...]

------------------------------------------------------------------------ <-- SCF
SCF loop      Energy           Fermi           Energy gain       Timer   <-- SCF
                               energy          per atom          (sec)   <-- SCF
------------------------------------------------------------------------ <-- SCF
Initial  -2.17865740E+003  0.00000000E+000                        55.64  <-- SCF
      1  -2.17865715E+003  1.11614360E+001  -8.45148666E-005      56.55  <-- SCF
      2  -2.17865715E+003  1.11614360E+001   4.40374456E-008      57.17  <-- SCF
      3  -2.17865714E+003  1.11610441E+001  -3.57373340E-006      57.98  <-- SCF
      4  -2.17865714E+003  1.11600860E+001  -4.79342691E-007      58.62  <-- SCF
      5  -2.17865714E+003  1.11594918E+001  -5.71971326E-008      59.33  <-- SCF
------------------------------------------------------------------------ <-- SCF

Final energy, E             =  -2178.657139078     eV
Final free energy (E-TS)    =  -2178.657139078     eV
(energies not corrected for finite basis set)

NB est. 0K energy (E-0.5TS)      =  -2178.657139078     eV

 ***************** Stress Tensor *****************
 *          Cartesian components (GPa)           *
 *             x             y             z     *
 *  x     -0.007692      0.000000     -0.000000  *
 *  y      0.000000     -0.007692     -0.000000  *
 *  z     -0.000000     -0.000000     -0.007692  *
 *  Pressure:    0.0077                          *

 +------------+-------------+-------------+-----------------+ <-- min BFGS
 |    Step    |   lambda    |   F.delta'  |    enthalpy     | <-- min BFGS
 +------------+-------------+-------------+-----------------+ <-- min BFGS
 |  previous  |    0.000000 |    0.000779 |    -2178.657212 | <-- min BFGS
 | trial step |    1.000000 |   -0.000101 |    -2178.657213 | <-- min BFGS
 +------------+-------------+-------------+-----------------+ <-- min BFGS

 BFGS: finished iteration     3 with enthalpy= -2.17865721E+003 eV

 +-----------+-----------------+-----------------+------------+-----+ <-- BFGS
 | Parameter |      value      |    tolerance    |    units   | OK? | <-- BFGS
 +-----------+-----------------+-----------------+------------+-----+ <-- BFGS
 |  dE/ion   |   3.614662E-007 |   1.000000E-005 |         eV | Yes | <-- BFGS
 |   Smax    |   7.691953E-003 |   5.000000E-002 |        GPa | Yes | <-- BFGS
 +-----------+-----------------+-----------------+------------+-----+ <-- BFGS

 BFGS: Geometry optimization completed successfully.

 BFGS: Final Configuration:

                                      Unit Cell
        Real Lattice(A)              Reciprocal Lattice(1/A)
  -0.0000000   2.5570711   2.5570711       -1.2285903   1.2285903   1.2285903
   2.5570711  -0.0000000   2.5570711        1.2285903  -1.2285903   1.2285903
   2.5570711   2.5570711   0.0000000        1.2285903   1.2285903  -1.2285903

                       Lattice parameters(A)       Cell Angles
                    a =    3.616245          alpha =   60.000000
                    b =    3.616245          beta  =   60.000000
                    c =    3.616245          gamma =   60.000000

                Current cell volume =   33.439395 A**3

 BFGS: Final Enthalpy     = -2.17865721E+003 eV
 BFGS: Final bulk modulus unchanged from initial value

 ***************************** Symmetrised Forces *****************************
 *                        Cartesian components (eV/A)                         *
 *                   x                    y                    z              *
 * O         1      0.00000              0.00000              0.00000         *
 * O         2      0.00000              0.00000             -0.00000         *
 * Zr        1      0.00000              0.00000              0.00000         *

 *********** Symmetrised Stress Tensor ***********
 *          Cartesian components (GPa)           *
 *             x             y             z     *
 *  x     -0.007692      0.000000     -0.000000  *
 *  y      0.000000     -0.007692     -0.000000  *
 *  z     -0.000000     -0.000000     -0.007692  *
 *  Pressure:    0.0077                          *

Writing analysis data to ZrO2_cubic.castep_bin

Writing model to ZrO2_cubic.check

 A BibTeX formatted list of references used in this run has been written to
 ZrO2_cubic.bib

Initialisation time =     11.52 s
Calculation time    =     48.62 s
Finalisation time   =      0.09 s
Total time          =     60.23 s