 | Materials Studio CASTEP version 2017            |
 | Ab Initio Total Energy Program                  |
 | Authors:                                        |
 | M. Segall, M. Probert, C. Pickard, P. Hasnip,   |
 | S. Clark, K. Refson, J. R. Yates, M. Payne      |
 | Contributors:                                   |
 | P. Lindan, P. Haynes, J. White, V. Milman,      |
 | N. Govind, M. Gibson, P. Tulip, V. Cocula,      |
 | B. Montanari, D. Quigley, M. Glover,            |
 | L. Bernasconi, A. Perlov, M. Plummer,           |
 | E. McNellis, J. Meyer, J. Gale, D. Jochym       |
 | J. Aarons, B. Walker, R. Gillen, D. Jones       |
 | T. Green, I. J. Bush, C. J. Armstrong,          |
 | E. J. Higgins, E. L. Brown, M. S. McFly         |
 | Copyright (c) 2000 - 2016                       |
 | Please cite                                     |
 |     "First principles methods using CASTEP"     |
 |         Zeitschrift fuer Kristallographie       |
 |           220(5-6) pp. 567-570 (2005)           |
 | S. J. Clark, M. D. Segall, C. J. Pickard,       |
 | P. J. Hasnip, M. J. Probert, K. Refson,         |
 | M. C. Payne                                     |
 |       in all publications arising from          |
 |              your use of CASTEP                 |

 This version was compiled for x86_64-windows-msvc2008 on May 05 2016
 Intel(R) Math Kernel Library Version 11.1.2
 Fundamental constants values: CODATA 2010

 Atomic calculation performed for C: 1s2 2s2 2p2

 Converged in 54 iterations to an ae energy of -1027.632 eV

 Identity difference: 2.37E-04

   | Pseudopotential Report - Date of generation 23-08-2019   |
   | Element: C Ionic charge:  4.00 Level of theory: PBE      |
   | Atomic Solver: Koelling-Harmon                           |
   |               Reference Electronic Structure             |
   |         Orbital         Occupation         Energy        |
   |            2s              2.000           -0.505        |
   |            2p              2.000           -0.194        |
   |                 Pseudopotential Definition               |
   |        Beta     l      e      Rc     scheme   norm       |
   |          1      0   -0.505   1.395     qc      0         |
   |          2      0    0.250   1.395     qc      0         |
   |          3      1   -0.194   1.395     qc      0         |
   |          4      1    0.250   1.395     qc      0         |
   |         loc     2    0.000   1.395     pn      0         |
   | Augmentation charge Rinner = 0.983                       |
   | Partial core correction Rc = 0.983                       |
   | "2|1.4|11|12|14.7|20UU:21UU(qc=7)[]"                     |
   |      Author: Chris J. Pickard, Cambridge University      |

 Doing a self consistent calculation for the test configuration

 Atomic calculation performed for C: 1s2 2s2 2p2

[...]

 AE eigenvalue nl 10 =      -10.04653081
 AE eigenvalue nl 20 =       -0.50533429
 AE eigenvalue nl 21 =       -0.19423807
 PS eigenvalue nl 20 =       -0.50531853
 PS eigenvalue nl 21 =       -0.19422214
 Maximum eigenvalue error:   1.59E-05

 Derived cutoff energies: C=   6 M=  10 F=  12 E=  16

 Atomic calculation performed for O: 1s2 2s2 2p4

[...]

   | Pseudopotential Report - Date of generation 23-08-2019   |
   | Element: O Ionic charge:  6.00 Level of theory: PBE      |
   | Atomic Solver: Koelling-Harmon                           |
   |               Reference Electronic Structure             |
   |         Orbital         Occupation         Energy        |
   |            2s              2.000           -0.881        |
   |            2p              4.000           -0.332        |
   |                 Pseudopotential Definition               |
   |        Beta     l      e      Rc     scheme   norm       |
   |          1      0   -0.881   1.100     qc      0         |
   |          2      0    0.250   1.100     qc      0         |
   |          3      1   -0.332   1.100     qc      0         |
   |          4      1    0.250   1.100     qc      0         |
   |         loc     2    0.000   1.100     pn      0         |
   | Augmentation charge Rinner = 0.769                       |
   | Partial core correction Rc = 0.769                       |
   | "2|1.1|14|18|21|20UU:21UU(qc=7)[]"                       |
   |      Author: Chris J. Pickard, Cambridge University      |

[...]

 Atomic calculation performed for O: 1s2 2s2 2p4

[...]

 Atomic calculation performed for Pd:

[...]

 Identity difference: 4.15E-03

 Warning: ion_atom_descreen_psp: negative charge density encountered
   | Pseudopotential Report - Date of generation 23-08-2019   |
   | Element: Pd Ionic charge: 18.00 Level of theory: PBE     |
   | Atomic Solver: Koelling-Harmon                           |
   |               Reference Electronic Structure             |
   |         Orbital         Occupation         Energy        |
   |            4s              2.000           -3.024        |
   |            4p              6.000           -1.769        |
   |            4d             10.000           -0.035        |
   |            5s              0.500           -0.024        |
   |                 Pseudopotential Definition               |
   |        Beta     l      e      Rc     scheme   norm       |
   |          1      0   -3.024   1.602     qc      0         |
   |          2      0   -0.024   1.602     qc      0         |
   |          3      0    0.250   1.602     qc      0         |
   |          4      1   -1.769   1.602     qc      0         |
   |          5      1    0.250   1.602     qc      0         |
   |          6      2   -0.035   1.602     qc      0         |
   |          7      2    0.250   1.602     qc      0         |
   |         loc     3    0.000   1.602     pn      0         |
   | Augmentation charge Rinner = 1.120                       |
   | Partial core correction Rc = 1.120                       |
   | "3|1.6|15|18.8|20.6|40U:50UU:41UU:42UU{5s0.5}(qc=7)[]"   |
   |      Author: Chris J. Pickard, Cambridge University      |

 Doing a self consistent calculation for the test configuration

 Atomic calculation performed for Pd:

 Converged in 117 iterations to an ae energy of -137306.547 eV

 AE eigenvalue nl 10 =     -887.98549682
 AE eigenvalue nl 20 =     -129.55227025
 AE eigenvalue nl 21 =     -116.13666558
 AE eigenvalue nl 30 =      -23.26518136
 AE eigenvalue nl 31 =      -18.85550066
 AE eigenvalue nl 32 =      -11.85263732
 AE eigenvalue nl 40 =       -3.02406957
 AE eigenvalue nl 41 =       -1.76878223
 AE eigenvalue nl 42 =       -0.03486337
 AE eigenvalue nl 50 =       -0.02425157
 PS eigenvalue nl 40 =       -3.02358228
 PS eigenvalue nl 41 =       -1.76830313
 PS eigenvalue nl 42 =       -0.03447713
 PS eigenvalue nl 50 =       -0.02390852
 Maximum eigenvalue error:   4.87E-04

 Derived cutoff energies: C=  14 M=  17 F=  20 E=  22

 Pseudo atomic calculation performed for C 2s2 2p2

 Converged in 17 iterations to a total energy of -148.1084 eV

 Pseudo atomic calculation performed for O 2s2 2p4

[...]

 Pseudo atomic calculation performed for Pd 4s2 4p6 4d10 5s0.5

 Converged in 51 iterations to a total energy of -3466.6328 eV

 Calculation parallelised over 2 processes.
 Data is distributed by k-point(2-way)

 ************************************ Title ************************************
 CASTEP calculation from Materials Studio

 ***************************** General Parameters ******************************

 output verbosity                               : normal  (1)
 write checkpoint data to                       : Pd__1_1_0_.check
 type of calculation                            : geometry optimization
 stress calculation                             : off
 density difference calculation                 : off
 electron localisation func (ELF) calculation   : off
 Hirshfeld analysis                             : off
 unlimited duration calculation
 timing information                             : on
 write final potential to formatted file        : off
 write final density to formatted file          : off
 write BibTeX reference list                    : on
 write OTFG pseudopotential files               : on
 checkpoint writing                             : both castep_bin and check files

 output         length unit                     : A
 output           mass unit                     : amu
 output           time unit                     : ps
 output         charge unit                     : e
 output           spin unit                     : hbar/2
 output         energy unit                     : eV
 output          force unit                     : eV/A
 output       velocity unit                     : A/ps
 output       pressure unit                     : GPa
 output     inv_length unit                     : 1/A
 output      frequency unit                     : cm-1
 output force constant unit                     : eV/A**2
 output         volume unit                     : A**3
 output   IR intensity unit                     : (D/A)**2/amu
 output         dipole unit                     : D
 output         efield unit                     : eV/A/e
 output        entropy unit                     : J/mol/K

 wavefunctions paging                           : none
 random number generator seed                   : randomised (155536849)
 data distribution                              : optimal for this architecture

 *********************** Exchange-Correlation Parameters ***********************

 using functional                               : Perdew Burke Ernzerhof
 relativistic treatment                         : Koelling-Harmon
 DFT+D: Semi-empirical dispersion correction    : off

 ************************* Pseudopotential Parameters **************************

 pseudopotential representation                 : reciprocal space
 <beta|phi> representation                      : reciprocal space
 spin-orbit coupling                            : off

 **************************** Basis Set Parameters *****************************

 plane wave basis set cut-off                   :   300.0000   eV
 size of standard grid                          :     1.5000
 size of   fine   gmax                          :    13.3104   1/A
 largest prime factor in FFT                    :          5
 finite basis set correction                    : none

 **************************** Electronic Parameters ****************************

 number of  electrons                           :  64.00
 net charge of system                           :  0.000
 treating system as non-spin-polarized
 number of bands                                :         39

 ********************* Electronic Minimization Parameters **********************

 Method: Treating system as metallic with density mixing treatment of electrons,
         and number of  SD  steps               :          1
         and number of  CG  steps               :          4

 total energy / atom convergence tol.           : 0.1000E-04   eV
 eigen-energy convergence tolerance             : 0.1000E-05   eV
 max force / atom convergence tol.              : ignored
 convergence tolerance window                   :          3   cycles
[...]
 |    Step    |   lambda    |   F.delta'  |    enthalpy     | <-- min BFGS
 +------------+-------------+-------------+-----------------+ <-- min BFGS
 |  previous  |    0.000000 |    1.880772 |   -11000.600156 | <-- min BFGS
 | trial step |    1.000000 |    1.581924 |   -11000.619755 | <-- min BFGS
 |  line step |    6.293415 |    0.205726 |   -11000.647706 | <-- min BFGS
 +------------+-------------+-------------+-----------------+ <-- min BFGS

 BFGS: finished iteration     1 with enthalpy= -1.10006477E+004 eV

[...]

 BFGS: Warning - trial step suggests complex energy landscape
                 in which simple line minimization will fail.

               - This is usually an indication that the forces/streses
                 are not accurate enough. Consider making the following changes:

                 1) Increase cutoff_energy or basis_precision
                 2) Reduce elec_energy_tol and/or elec_force_tol
                 3) Increase grid_scale
                 4) Increase fine_grid_scale

               - Proceeding with a bisection search to find root instead.

 BFGS: improving iteration         2 with bisection search (lambda=  0.500000)

[...]

 BFGS: looks like bisection search has succeeded in going downhill
 BFGS: finished iteration     2 with enthalpy= -1.10006478E+004 eV

 +-----------+-----------------+-----------------+------------+-----+ <-- BFGS
 | Parameter |      value      |    tolerance    |    units   | OK? | <-- BFGS
 +-----------+-----------------+-----------------+------------+-----+ <-- BFGS
 |  dE/ion   |   1.057471E-005 |   5.000000E-005 |         eV | Yes | <-- BFGS
 |  |F|max   |   2.862400E+000 |   1.000000E-001 |       eV/A | No  | <-- BFGS
 |  |dR|max  |   2.821421E-004 |   5.000000E-003 |          A | Yes | <-- BFGS
 +-----------+-----------------+-----------------+------------+-----+ <-- BFGS

[...]

 BFGS: Warning - looks like bisection search has failed?
 BFGS:         - reverting to earlier configuration and reseting inverse Hessian
 BFGS: finished iteration     3 with enthalpy= -1.10006478E+004 eV

[...]

 BFGS: reverting to earlier configuration

[...]

 +-----------+-----------------+-----------------+------------+-----+ <-- BFGS
 | Parameter |      value      |    tolerance    |    units   | OK? | <-- BFGS
 +-----------+-----------------+-----------------+------------+-----+ <-- BFGS
 |  dE/ion   |   5.636262E-004 |   5.000000E-005 |         eV | No  | <-- BFGS
 |  |F|max   |   2.657953E+000 |   1.000000E-001 |       eV/A | No  | <-- BFGS
 |  |dR|max  |   4.029672E-003 |   5.000000E-003 |          A | Yes | <-- BFGS
 +-----------+-----------------+-----------------+------------+-----+ <-- BFGS

[...]

 BFGS: Warning - looks like bisection search has failed?
 BFGS:         - reverting to earlier configuration and reseting inverse Hessian
 BFGS: updated estimated <frequency>  = 527.93124 cm-1
 BFGS: finished iteration     6 with enthalpy= -1.10006553E+004 eV

[...]

 +-----------+-----------------+-----------------+------------+-----+ <-- BFGS
 | Parameter |      value      |    tolerance    |    units   | OK? | <-- BFGS
 +-----------+-----------------+-----------------+------------+-----+ <-- BFGS
 |  dE/ion   |   1.664058E-005 |   5.000000E-005 |         eV | Yes | <-- BFGS
 |  |F|max   |   1.857042E+000 |   1.000000E-001 |       eV/A | No  | <-- BFGS
 |  |dR|max  |   8.268394E-003 |   5.000000E-003 |          A | No  | <-- BFGS
 +-----------+-----------------+-----------------+------------+-----+ <-- BFGS

[...]

 +-----------+-----------------+-----------------+------------+-----+ <-- BFGS
 | Parameter |      value      |    tolerance    |    units   | OK? | <-- BFGS
 +-----------+-----------------+-----------------+------------+-----+ <-- BFGS
 |  dE/ion   |   1.664058E-005 |   5.000000E-005 |         eV | Yes | <-- BFGS
 |  |F|max   |   1.857042E+000 |   1.000000E-001 |       eV/A | No  | <-- BFGS
 |  |dR|max  |   8.268394E-003 |   5.000000E-003 |          A | No  | <-- BFGS
 +-----------+-----------------+-----------------+------------+-----+ <-- BFGS

 BFGS: Warning - Repeated consecutive reset of inverse Hessian
 BFGS:           without satisfying convergence criteria which
 BFGS:           looks like BFGS has run out of search directions.
 BFGS: Warning - Lets try allowing some uphill steps and see if
 BFGS:           we can get around this barrier.
 BFGS: Warning - It is possible that the system may now converge to
 BFGS:           a stationary point OTHER than the desired minimum.
 BFGS: Hint    - this may be an indication that either:
 BFGS:           a) you are using a poor guess at geom_frequency_est
 BFGS:           and/or geom_modulus_est, or
 BFGS:           b) you are using unrealistic convergence criteria.
 BFGS:           Suggest therefore that you consider changing them!

[...]

 BFGS: improving iteration        11 with quad minimization (lambda= 20.281320)

[...]

 +------------+-------------+-------------+-----------------+ <-- min BFGS
 |    Step    |   lambda    |   F.delta'  |    enthalpy     | <-- min BFGS
 +------------+-------------+-------------+-----------------+ <-- min BFGS
 |  previous  |    0.000000 |    1.036368 |   -11000.655752 | <-- min BFGS
 | trial step |    1.000000 |    1.018928 |   -11000.655399 | <-- min BFGS
 |  line step |   10.140660 |    0.717249 |   -11000.528398 | <-- min BFGS
 |  quad step |   20.281320 |    0.341077 |   -10999.967393 | <-- min BFGS
 +------------+-------------+-------------+-----------------+ <-- min BFGS

[...]

Writing model to Pd__1_1_0_.check
 BFGS: forbidding uphill steps from now on

[...]

 BFGS: Warning - looks like bisection search has failed?
 BFGS:         - reverting to earlier configuration and reseting inverse Hessian
 BFGS: updated estimated <frequency>  =1393.22384 cm-1
 BFGS: finished iteration    22 with enthalpy= -1.10005959E+004 eV

[...]

 Starting BFGS iteration         63 ...
 BFGS: forbidding uphill steps from now on

[...]

 BFGS: improving iteration        67 with line minimization (lambda=128.102706)

[...]

 BFGS: improving iteration        67 with quad minimization (lambda=244.151728)

[...]

 Starting BFGS iteration         76 ...
 BFGS: forbidding uphill steps from now on

[...]

 BFGS: reverting to earlier configuration and reseting inverse Hessian
 BFGS: finished iteration    81 with enthalpy= -1.09996575E+004 eV

[...]

 BFGS: looks like bisection search has succeeded in going downhill
 BFGS: finished iteration    88 with enthalpy= -1.09996584E+004 eV

[...]

 BFGS: reverting to earlier configuration and reseting inverse Hessian
 BFGS: finished iteration    89 with enthalpy= -1.09996584E+004 eV

[...]

 BFGS: Warning - looks like bisection search has failed?
 BFGS:         - reverting to earlier configuration and reseting inverse Hessian
 BFGS: finished iteration    90 with enthalpy= -1.09996584E+004 eV

 +-----------+-----------------+-----------------+------------+-----+ <-- BFGS
 | Parameter |      value      |    tolerance    |    units   | OK? | <-- BFGS
 +-----------+-----------------+-----------------+------------+-----+ <-- BFGS
 |  dE/ion   |   3.148704E-007 |   5.000000E-005 |         eV | Yes | <-- BFGS
 |  |F|max   |   1.770169E+000 |   1.000000E-001 |       eV/A | No  | <-- BFGS
 |  |dR|max  |   8.260625E-005 |   5.000000E-003 |          A | Yes | <-- BFGS
 +-----------+-----------------+-----------------+------------+-----+ <-- BFGS

 BFGS: Warning - Repeated consecutive reset of inverse Hessian
 BFGS:           without satisfying convergence criteria which
 BFGS:           looks like BFGS has run out of search directions.
 BFGS: Warning - Lets try allowing some uphill steps and see if
 BFGS:           we can get around this barrier.
 BFGS: Warning - It is possible that the system may now converge to
 BFGS:           a stationary point OTHER than the desired minimum.
 BFGS: Hint    - this may be an indication that either:
 BFGS:           a) you are using a poor guess at geom_frequency_est
 BFGS:           and/or geom_modulus_est, or
 BFGS:           b) you are using unrealistic convergence criteria.
 BFGS:           Suggest therefore that you consider changing them!

[...]

 BFGS: improving iteration        93 with line minimization (lambda=256.895994)

[...]

 BFGS: improving iteration        93 with quad minimization (lambda=467.134741)

[...]

 +-----------+-----------------+-----------------+------------+-----+ <-- BFGS
 | Parameter |      value      |    tolerance    |    units   | OK? | <-- BFGS
 +-----------+-----------------+-----------------+------------+-----+ <-- BFGS
 |  dE/ion   |   6.978684E-004 |   5.000000E-005 |         eV | No  | <-- BFGS
 |  |F|max   |   6.639606E-001 |   1.000000E-001 |       eV/A | No  | <-- BFGS
 |  |dR|max  |   1.029944E-003 |   5.000000E-003 |          A | Yes | <-- BFGS
 +-----------+-----------------+-----------------+------------+-----+ <-- BFGS

[...]

 BFGS: improving iteration        99 with line minimization (lambda=  1.004623)

[...]

 +------------+-------------+-------------+-----------------+ <-- min BFGS
 |    Step    |   lambda    |   F.delta'  |    enthalpy     | <-- min BFGS
 +------------+-------------+-------------+-----------------+ <-- min BFGS
 |  previous  |    0.000000 |    0.590078 |   -11000.316094 | <-- min BFGS
 | trial step |    0.669749 |    0.276312 |   -10999.304212 | <-- min BFGS
 |  line step |    1.004623 |    0.272067 |   -10999.172804 | <-- min BFGS
 +------------+-------------+-------------+-----------------+ <-- min BFGS

 BFGS: improving iteration        99 with quad minimization (lambda=  1.339498)

[...]

 +------------+-------------+-------------+-----------------+ <-- min BFGS
 |    Step    |   lambda    |   F.delta'  |    enthalpy     | <-- min BFGS
 +------------+-------------+-------------+-----------------+ <-- min BFGS
 |  previous  |    0.000000 |    0.590078 |   -11000.316094 | <-- min BFGS
 | trial step |    0.669749 |    0.276312 |   -10999.304212 | <-- min BFGS
 |  line step |    1.004623 |    0.272067 |   -10999.172804 | <-- min BFGS
 |  quad step |    1.339498 |    0.606494 |   -10998.717567 | <-- min BFGS
 +------------+-------------+-------------+-----------------+ <-- min BFGS

 BFGS: reverting to earlier configuration

[...]

 BFGS: finished iteration    99 with enthalpy= -1.09993042E+004 eV

[...]

 Starting BFGS iteration        100 ...

[...]

Writing model to Pd__1_1_0_.check
 BFGS: forbidding uphill steps from now on

 +------------+-------------+-------------+-----------------+ <-- min BFGS
 |    Step    |   lambda    |   F.delta'  |    enthalpy     | <-- min BFGS
 +------------+-------------+-------------+-----------------+ <-- min BFGS
 |  previous  |    0.000000 |    0.280869 |   -10999.304212 | <-- min BFGS
 +------------+-------------+-------------+-----------------+ <-- min BFGS

 BFGS: starting iteration       100 with trial guess (lambda=  1.000000)

[...]

 BFGS: Warning - trial step suggests complex energy landscape
                 in which simple line minimization will fail.

               - This is usually an indication that the forces/streses
                 are not accurate enough. Consider making the following changes:

                 1) Increase cutoff_energy or basis_precision
                 2) Reduce elec_energy_tol and/or elec_force_tol
                 3) Increase grid_scale
                 4) Increase fine_grid_scale

               - Proceeding with a bisection search to find root instead.

[...]

 BFGS: improving iteration       100 with bisection search (lambda=  0.031250)

[...]

------------------------------------------------------------------------ <-- SCF
SCF loop      Energy           Fermi           Energy gain       Timer   <-- SCF
                               energy          per atom          (sec)   <-- SCF
------------------------------------------------------------------------ <-- SCF
Initial  -1.09993067E+004  0.00000000E+000                      1043.86  <-- SCF
      1  -1.09992777E+004  3.35630607E+000  -5.79945550E-003    1044.08  <-- SCF
      2  -1.09992780E+004  3.35630280E+000   6.90754832E-005    1044.36  <-- SCF
      3  -1.09992778E+004  3.35269507E+000  -3.52161873E-005    1044.58  <-- SCF
      4  -1.09992779E+004  3.34911924E+000   1.46697405E-005    1044.80  <-- SCF
      5  -1.09992778E+004  3.35058344E+000  -1.19965836E-005    1045.02  <-- SCF
      6  -1.09992778E+004  3.35141176E+000  -6.81898127E-006    1045.20  <-- SCF
      7  -1.09992778E+004  3.35004456E+000   4.23257853E-006    1045.38  <-- SCF
------------------------------------------------------------------------ <-- SCF

Final energy, E             =  -10999.22181785     eV
Final free energy (E-TS)    =  -10999.27782800     eV
(energies not corrected for finite basis set)

NB est. 0K energy (E-0.5TS)      =  -10999.24982293     eV

 *********************************** Forces ***********************************
 *                        Cartesian components (eV/A)                         *
 *                   x                    y                    z              *
 * C         1      0.00000              0.00000              1.61762         *
 * O         1      0.00000              0.00000             -0.80507         *
 * Pd        1      0.00000(cons'd)      0.00000(cons'd)      4.92606(cons'd) *
 * Pd        2      0.00000              0.00000              0.38258         *
 * Pd        3      0.00000(cons'd)      0.00000(cons'd)     -6.12118(cons'd) *

 +------------+-------------+-------------+-----------------+ <-- min BFGS
 |    Step    |   lambda    |   F.delta'  |    enthalpy     | <-- min BFGS
 +------------+-------------+-------------+-----------------+ <-- min BFGS
 |  previous  |    0.000000 |    0.280869 |   -10999.304212 | <-- min BFGS
 | trial step |    0.031250 |    0.279531 |   -10999.277828 | <-- min BFGS
 +------------+-------------+-------------+-----------------+ <-- min BFGS

 BFGS: Warning - looks like bisection search has failed?
 BFGS:         - reverting to earlier configuration and reseting inverse Hessian
 BFGS: updated estimated <frequency>  =6884.05819 cm-1
 BFGS: finished iteration   100 with enthalpy= -1.09993042E+004 eV

 +-----------+-----------------+-----------------+------------+-----+ <-- BFGS
 | Parameter |      value      |    tolerance    |    units   | OK? | <-- BFGS
 +-----------+-----------------+-----------------+------------+-----+ <-- BFGS
 |  dE/ion   |   2.023765E-001 |   5.000000E-005 |         eV | No  | <-- BFGS
 |  |F|max   |   1.775500E+000 |   1.000000E-001 |       eV/A | No  | <-- BFGS
 |  |dR|max  |   2.645886E-001 |   5.000000E-003 |          A | No  | <-- BFGS
 +-----------+-----------------+-----------------+------------+-----+ <-- BFGS

 BFGS: WARNING - Geometry optimization failed to converge after        100 steps

 BFGS: Final Configuration:

                                     Cell Contents

            x  Element    Atom        Fractional coordinates of atoms  x
            x            Number           u          v          w      x
            x  C            1        -0.500000   0.000000   0.444244   x
            x  O            1        -0.500000   0.000000   0.556092   x
            x  Pd           1         0.500000   0.500000   0.000000   x
            x  Pd           2        -0.500000  -0.500000   0.263375   x
            x  Pd           3         0.000000   0.000000   0.129706   x

 BFGS: Final Enthalpy     = -1.09993042E+004 eV
 BFGS: Final <frequency>  =    6884.05819 cm-1

  *** There were at least    61 warnings during this run ***
  *** => please check the whole of this file carefully!  ***

 ***************************** Symmetrised Forces *****************************
 *                        Cartesian components (eV/A)                         *
 *                   x                    y                    z              *
 * C         1      0.00000              0.00000              0.92531         *
 * O         1      0.00000              0.00000              2.94939         *
 * Pd        1      0.00000(cons'd)      0.00000(cons'd)      2.54105(cons'd) *
 * Pd        2      0.00000              0.00000              2.15555         *
 * Pd        3      0.00000(cons'd)      0.00000(cons'd)     -8.57130(cons'd) *

Writing analysis data to Pd__1_1_0_.castep_bin

Writing model to Pd__1_1_0_.check

 A BibTeX formatted list of references used in this run has been written to
 Pd__1_1_0_.bib

Initialisation time =     23.38 s
Calculation time    =   1022.20 s
Finalisation time   =      0.02 s
Total time          =   1045.59 s

Overall parallel efficiency rating: Excellent (95%)

Data was distributed by:-
k-point (2-way); efficiency rating: Excellent (97%)