 | Materials Studio CASTEP version 2017            |
 | Ab Initio Total Energy Program                  |
 | Authors:                                        |
 | M. Segall, M. Probert, C. Pickard, P. Hasnip,   |
 | S. Clark, K. Refson, J. R. Yates, M. Payne      |
 | Contributors:                                   |
 | P. Lindan, P. Haynes, J. White, V. Milman,      |
 | N. Govind, M. Gibson, P. Tulip, V. Cocula,      |
 | B. Montanari, D. Quigley, M. Glover,            |
 | L. Bernasconi, A. Perlov, M. Plummer,           |
 | E. McNellis, J. Meyer, J. Gale, D. Jochym       |
 | J. Aarons, B. Walker, R. Gillen, D. Jones       |
 | T. Green, I. J. Bush, C. J. Armstrong,          |
 | E. J. Higgins, E. L. Brown, M. S. McFly         |
 | Copyright (c) 2000 - 2016                       |
 | Please cite                                     |
 |     "First principles methods using CASTEP"     |
 |         Zeitschrift fuer Kristallographie       |
 |           220(5-6) pp. 567-570 (2005)           |
 | S. J. Clark, M. D. Segall, C. J. Pickard,       |
 | P. J. Hasnip, M. J. Probert, K. Refson,         |
 | M. C. Payne                                     |
 |       in all publications arising from          |
 |              your use of CASTEP                 |

 This version was compiled for x86_64-windows-msvc2008 on May 05 2016
 Intel(R) Math Kernel Library Version 11.1.2
 Fundamental constants values: CODATA 2010

 Atomic calculation performed for Ni: 1s2 2s2 2p6 3s2 3p6 3d8 4s2

 Converged in 91 iterations to an ae energy of -41375.898 eV

 Identity difference: 8.24E-04

   | Pseudopotential Report - Date of generation 31-08-2019   |
   | Element: Ni Ionic charge: 10.00 Level of theory: PBE     |
   | Atomic Solver: Koelling-Harmon                           |
   |               Reference Electronic Structure             |
   |         Orbital         Occupation         Energy        |
   |            3d              8.000           -0.326        |
   |            4s              2.000           -0.207        |
   |                 Pseudopotential Definition               |
   |        Beta     l      e      Rc     scheme   norm       |
   |          1      0   -0.207   1.999     qc      0         |
   |          2      0    0.250   1.999     qc      0         |
   |          3      1    0.000   1.999     qc      0         |
   |          4      1    0.250   1.999     qc      0         |
   |          5      2   -0.326   1.999     qc      0         |
   |          6      2    0.250   1.999     qc      0         |
   |         loc     3    0.000   2.191     pn      0         |
   | Augmentation charge Rinner = 1.001                       |
   | Partial core correction Rc = 1.001                       |
   | "3|2.2|2|1|10|12.1|14.7|40UU:41UU:32UU(qc=6)[]"          |
   |      Author: Chris J. Pickard, Cambridge University      |

 Doing a self consistent calculation for the test configuration

 Atomic calculation performed for Ni: 1s2 2s2 2p6 3s2 3p6 3d8 4s2

 Converged in 91 iterations to an ae energy of -41375.898 eV

 AE eigenvalue nl 10 =     -301.79263876
 AE eigenvalue nl 20 =      -36.08162216
 AE eigenvalue nl 21 =      -31.04152791
 AE eigenvalue nl 30 =       -4.08135009
 AE eigenvalue nl 31 =       -2.62346104
 AE eigenvalue nl 32 =       -0.32611860
 AE eigenvalue nl 40 =       -0.20737752
 PS eigenvalue nl 32 =       -0.32597884
 PS eigenvalue nl 40 =       -0.20738932
 Maximum eigenvalue error:   1.40E-04

 Derived cutoff energies: C=   8 M=  12 F=  12 E=  16

 Pseudo atomic calculation performed for Ni 3d8 4s2

 Converged in 40 iterations to a total energy of -1355.1527 eV

 Calculation not parallelised.

 ************************************ Title ************************************
 CASTEP calculation from Materials Studio

 ***************************** General Parameters ******************************

 output verbosity                               : normal  (1)
 write checkpoint data to                       : Ni.check
 type of calculation                            : geometry optimization
 stress calculation                             : on
 density difference calculation                 : off
 electron localisation func (ELF) calculation   : off
 Hirshfeld analysis                             : off
 unlimited duration calculation
 timing information                             : on
 write final potential to formatted file        : off
 write final density to formatted file          : off
 write BibTeX reference list                    : on
 write OTFG pseudopotential files               : on
 checkpoint writing                             : both castep_bin and check files

 output         length unit                     : A
 output           mass unit                     : amu
 output           time unit                     : ps
 output         charge unit                     : e
 output           spin unit                     : hbar/2
 output         energy unit                     : eV
 output          force unit                     : eV/A
 output       velocity unit                     : A/ps
 output       pressure unit                     : GPa
 output     inv_length unit                     : 1/A
 output      frequency unit                     : cm-1
 output force constant unit                     : eV/A**2
 output         volume unit                     : A**3
 output   IR intensity unit                     : (D/A)**2/amu
 output         dipole unit                     : D
 output         efield unit                     : eV/A/e
 output        entropy unit                     : J/mol/K

 wavefunctions paging                           : none
 random number generator seed                   : randomised (161302598)
 data distribution                              : optimal for this architecture
 optimization strategy                          : maximize speed(+++)

 *********************** Exchange-Correlation Parameters ***********************

 using functional                               : Perdew Burke Ernzerhof
 relativistic treatment                         : Koelling-Harmon
 DFT+D: Semi-empirical dispersion correction    : off

 ************************* Pseudopotential Parameters **************************

 pseudopotential representation                 : reciprocal space
 <beta|phi> representation                      : reciprocal space
 spin-orbit coupling                            : off

 **************************** Basis Set Parameters *****************************

 plane wave basis set cut-off                   :   400.0000   eV
 size of standard grid                          :     1.7500
 size of   fine   grid                          :     2.1000
 size of   fine   gmax                          :    21.5173   1/A
 largest prime factor in FFT                    :          5
 finite basis set correction                    : automatic
 number of sample energies                      :          3
           sample  spacing                      :     5.0000   eV

 **************************** Electronic Parameters ****************************

 number of  electrons                           :  10.00
 net charge of system                           :  0.000
 net spin   of system                           :  2.000
 number of  up  spins                           :  6.000
 number of down spins                           :  4.000
 treating system as spin-polarized
 number of bands                                :         10

 ********************* Electronic Minimization Parameters **********************

 Method: Treating system as metallic with density mixing treatment of electrons,
         and number of  SD  steps               :          1
         and number of  CG  steps               :          4

 total energy / atom convergence tol.           : 0.1000E-05   eV
 eigen-energy convergence tolerance             : 0.1000E-06   eV
 max force / atom convergence tol.              : ignored
 convergence tolerance window                   :          3   cycles
 max. number of SCF cycles                      :        100
 number of fixed-spin iterations                :          6
 smearing scheme                                : Gaussian
 smearing width                                 : 0.1000       eV
 Fermi energy convergence tolerance             : 0.2721E-13   eV
 periodic dipole correction                     : NONE

 ************************** Density Mixing Parameters **************************

 density-mixing scheme                          : Pulay
 max. length of mixing history                  :         20
 charge density mixing amplitude                : 0.5000
   spin density mixing amplitude                :  2.000
 cut-off energy for mixing                      :  400.0       eV
 charge density mixing g-vector                 :  1.500       1/A
   spin density mixing g-vector                 :  1.500       1/A

 ********************** Geometry Optimization Parameters ***********************

 optimization method                            : BFGS
 variable cell method                           : fixed basis quality
 max. number of steps                           :        100
 estimated bulk modulus                         :  500.0       GPa
 estimated <frequency>                          :  1668.       cm-1
 geom line minimiser                            : on
 with line minimiser tolerance                  :     0.4000
  with spin fully able to relax for all steps
 total energy convergence tolerance             : 0.1000E-04   eV/atom
        max ionic |force| tolerance             : 0.3000E-01   eV/A
 max ionic |displacement| tolerance             : 0.1000E-02   A
   max |stress component| tolerance             : 0.5000E-01   GPa
 convergence tolerance window                   :          2   steps
 backup results every                           :          5   steps

                                      Unit Cell
        Real Lattice(A)                      Reciprocal Lattice(1/A)
   0.0000000   1.7620000   1.7620000       -1.7829697   1.7829697   1.7829697
   1.7620000  -0.0000000   1.7620000        1.7829697  -1.7829697   1.7829697
   1.7620000   1.7620000   0.0000000        1.7829697   1.7829697  -1.7829697

                       Lattice parameters(A)       Cell Angles
                    a =    2.491844          alpha =   60.000000
                    b =    2.491844          beta  =   60.000000
                    c =    2.491844          gamma =   60.000000

                       Current cell volume =   10.940765       A**3

                                     Cell Contents
                         Total number of ions in cell =    1
                      Total number of species in cell =    1
                        Max number of any one species =    1

            x  Element    Atom        Fractional coordinates of atoms  x
            x            Number           u          v          w      x
            x  Ni           1         0.000000   0.000000   0.000000   x

                         No user defined ionic velocities

                                   Details of Species

                               Mass of species in AMU
                                    Ni   58.7099991

                          Electric Quadrupole Moment (Barn)
                                    Ni    0.1620000 Isotope 61

                          Files used for pseudopotentials:
                                    Ni 3|2.2|2|1|10|12.1|14.7|40UU:41UU:32UU(qc=6)[]

                              k-Points For BZ Sampling
                       MP grid size for SCF calculation is  7  7  7
                            with an offset of   0.000  0.000  0.000
                       Number of kpoints used =            20

                               Symmetry and Constraints

                      Maximum deviation from symmetry = 0.200000E-14     ANG

                      Number of symmetry operations   =          48
         There are no ionic constraints specified or generated for this cell
                      Point group of crystal =    32: Oh, m-3m, 4/m -3 2/m
                      Space group of crystal =   225: Fm-3m, -F 4 2 3

             Set iprint > 1 for details on symmetry rotations/translations

                         Centre of mass is NOT constrained

                         Number of cell constraints= 5
                         Cell constraints are:  1 1 1 0 0 0

                         External pressure/stress (GPa)
                          0.00000   0.00000   0.00000
                                    0.00000   0.00000
                                              0.00000

Integrated Spin Density     =    0.737399     hbar/2
Integrated |Spin Density|   =    0.824963     hbar/2

Final energy, E             =  -1362.494083919     eV
Final free energy (E-TS)    =  -1362.504953336     eV
(energies not corrected for finite basis set)

NB est. 0K energy (E-0.5TS)      =  -1362.499518627     eV

Calculating total energy with cut-off of  395.000eV.
------------------------------------------------------------------------ <-- SCF
SCF loop      Energy           Fermi           Energy gain       Timer   <-- SCF
                               energy          per atom          (sec)   <-- SCF
------------------------------------------------------------------------ <-- SCF
Initial  -1.36249418E+003  0.00000000E+000                        17.47  <-- SCF
      1  -1.36251321E+003  5.56351784E+000   1.90286152E-002      17.75  <-- SCF
      2  -1.36251321E+003  5.56351781E+000   8.28665462E-007      18.02  <-- SCF
      3  -1.36251320E+003  5.56844586E+000  -5.88087563E-006      18.33  <-- SCF
      4  -1.36251317E+003  5.55836212E+000  -3.88080988E-005      18.72  <-- SCF
      5  -1.36251317E+003  5.56544809E+000   1.70282428E-006      19.05  <-- SCF
      6  -1.36251317E+003  5.56603227E+000   1.21800190E-006      19.33  <-- SCF
      7  -1.36251317E+003  5.56538311E+000  -1.60263939E-006      19.59  <-- SCF
      8  -1.36251317E+003  5.56556582E+000   5.50840266E-007      19.86  <-- SCF
      9  -1.36251317E+003  5.56560836E+000   2.07182993E-007      20.09  <-- SCF
------------------------------------------------------------------------ <-- SCF

[...]

Calculating total energy with cut-off of  400.000eV.
------------------------------------------------------------------------ <-- SCF
SCF loop      Energy           Fermi           Energy gain       Timer   <-- SCF
                               energy          per atom          (sec)   <-- SCF
------------------------------------------------------------------------ <-- SCF
Initial  -1.36250255E+003  0.00000000E+000                        20.19  <-- SCF
      1  -1.36251879E+003  5.56477885E+000   1.62424202E-002      20.47  <-- SCF
      2  -1.36251879E+003  5.56477882E+000   6.01571051E-007      20.77  <-- SCF
      3  -1.36251880E+003  5.56855389E+000   1.02426640E-005      21.06  <-- SCF
      4  -1.36251879E+003  5.56092917E+000  -8.67676484E-006      21.34  <-- SCF
      5  -1.36251880E+003  5.56615998E+000   4.86653043E-006      21.67  <-- SCF
      6  -1.36251880E+003  5.56669900E+000   1.69381811E-006      21.88  <-- SCF
      7  -1.36251880E+003  5.56622073E+000  -9.18261039E-007      22.12  <-- SCF
      8  -1.36251880E+003  5.56633395E+000   3.15568180E-007      22.36  <-- SCF
------------------------------------------------------------------------ <-- SCF

[...]

 For future reference: finite basis dEtot/dlog(Ecut) =      -0.544163eV
 Total energy corrected for finite basis set =   -1362.519235 eV

 ***************** Stress Tensor *****************
 *          Cartesian components (GPa)           *
 *             x             y             z     *
 *  x     -0.856929     -0.000000      0.000000  *
 *  y     -0.000000     -0.856929      0.000000  *
 *  z      0.000000      0.000000     -0.856929  *
 *  Pressure:    0.8569                          *
 BFGS: finished iteration     0 with enthalpy= -1.36251924E+003 eV

 +-----------+-----------------+-----------------+------------+-----+ <-- BFGS
 | Parameter |      value      |    tolerance    |    units   | OK? | <-- BFGS
 +-----------+-----------------+-----------------+------------+-----+ <-- BFGS
 |  dE/ion   |   0.000000E+000 |   1.000000E-005 |         eV | No  | <-- BFGS
 |   Smax    |   8.569288E-001 |   5.000000E-002 |        GPa | No  | <-- BFGS
 +-----------+-----------------+-----------------+------------+-----+ <-- BFGS

 Starting BFGS iteration          1 ...

 +------------+-------------+-------------+-----------------+ <-- min BFGS
 |    Step    |   lambda    |   F.delta'  |    enthalpy     | <-- min BFGS
 +------------+-------------+-------------+-----------------+ <-- min BFGS
 |  previous  |    0.000000 |    0.003725 |    -1362.519235 | <-- min BFGS
 +------------+-------------+-------------+-----------------+ <-- min BFGS

 BFGS: starting iteration         1 with trial guess (lambda=  1.000000)

[...]

------------------------------------------------------------------------ <-- SCF
SCF loop      Energy           Fermi           Energy gain       Timer   <-- SCF
                               energy          per atom          (sec)   <-- SCF
------------------------------------------------------------------------ <-- SCF
Initial  -1.36250699E+003  0.00000000E+000                        22.73  <-- SCF
      1  -1.36252259E+003  5.46010141E+000   1.55985170E-002      23.03  <-- SCF
      2  -1.36252259E+003  5.46010138E+000   1.24255465E-006      23.48  <-- SCF
      3  -1.36252215E+003  5.62326248E+000  -4.39959601E-004      23.84  <-- SCF
      4  -1.36252077E+003  5.54980789E+000  -1.38203253E-003      24.20  <-- SCF
      5  -1.36252077E+003  5.54955601E+000   1.65419152E-006      24.58  <-- SCF
      6  -1.36252075E+003  5.54961104E+000  -1.84331625E-005      24.80  <-- SCF
      7  -1.36252072E+003  5.54943786E+000  -3.13797595E-005      25.00  <-- SCF
      8  -1.36252071E+003  5.54897749E+000  -7.12270445E-006      25.19  <-- SCF
      9  -1.36252071E+003  5.54896600E+000  -5.56725602E-007      25.42  <-- SCF
     10  -1.36252071E+003  5.54894965E+000  -2.08881754E-007      25.64  <-- SCF
------------------------------------------------------------------------ <-- SCF

[...]

 ***************** Stress Tensor *****************
 *          Cartesian components (GPa)           *
 *             x             y             z     *
 *  x     -0.795789      0.000000      0.000000  *
 *  y      0.000000     -0.795789      0.000000  *
 *  z      0.000000      0.000000     -0.795789  *
 *  Pressure:    0.7958                          *

 +------------+-------------+-------------+-----------------+ <-- min BFGS
 |    Step    |   lambda    |   F.delta'  |    enthalpy     | <-- min BFGS
 +------------+-------------+-------------+-----------------+ <-- min BFGS
 |  previous  |    0.000000 |    0.003725 |    -1362.519235 | <-- min BFGS
 | trial step |    1.000000 |    0.003463 |    -1362.518700 | <-- min BFGS
 +------------+-------------+-------------+-----------------+ <-- min BFGS

 BFGS: improving iteration         1 with line minimization (lambda= 14.227629)

[...]

 +------------+-------------+-------------+-----------------+ <-- min BFGS
 |    Step    |   lambda    |   F.delta'  |    enthalpy     | <-- min BFGS
 +------------+-------------+-------------+-----------------+ <-- min BFGS
 |  previous  |    0.000000 |    0.003725 |    -1362.519235 | <-- min BFGS
 | trial step |    1.000000 |    0.003463 |    -1362.518700 | <-- min BFGS
 |  line step |   14.227629 |   -0.015038 |    -1362.514895 | <-- min BFGS
 +------------+-------------+-------------+-----------------+ <-- min BFGS

 BFGS: improving iteration         1 with quad minimization (lambda=  3.475842)

[...]

 +------------+-------------+-------------+-----------------+ <-- min BFGS
 |    Step    |   lambda    |   F.delta'  |    enthalpy     | <-- min BFGS
 +------------+-------------+-------------+-----------------+ <-- min BFGS
 |  previous  |    0.000000 |    0.003725 |    -1362.519235 | <-- min BFGS
 | trial step |    1.000000 |    0.003463 |    -1362.518700 | <-- min BFGS
 |  line step |   14.227629 |   -0.015038 |    -1362.514895 | <-- min BFGS
 |  quad step |    3.475842 |   -0.000274 |    -1362.518474 | <-- min BFGS
 +------------+-------------+-------------+-----------------+ <-- min BFGS

 BFGS: finished iteration     1 with enthalpy= -1.36251847E+003 eV

 +-----------+-----------------+-----------------+------------+-----+ <-- BFGS
 | Parameter |      value      |    tolerance    |    units   | OK? | <-- BFGS
 +-----------+-----------------+-----------------+------------+-----+ <-- BFGS
 |  dE/ion   |   7.612837E-004 |   1.000000E-005 |         eV | No  | <-- BFGS
 |   Smax    |   6.275699E-002 |   5.000000E-002 |        GPa | No  | <-- BFGS
 +-----------+-----------------+-----------------+------------+-----+ <-- BFGS

 Starting BFGS iteration          2 ...

 +------------+-------------+-------------+-----------------+ <-- min BFGS
 |    Step    |   lambda    |   F.delta'  |    enthalpy     | <-- min BFGS
 +------------+-------------+-------------+-----------------+ <-- min BFGS
 |  previous  |    0.000000 |    0.000274 |    -1362.518474 | <-- min BFGS
 +------------+-------------+-------------+-----------------+ <-- min BFGS

 BFGS: starting iteration         2 with trial guess (lambda=  1.000000)

[...]

------------------------------------------------------------------------ <-- SCF
SCF loop      Energy           Fermi           Energy gain       Timer   <-- SCF
                               energy          per atom          (sec)   <-- SCF
------------------------------------------------------------------------ <-- SCF
Initial  -1.36250972E+003  0.00000000E+000                        34.62  <-- SCF
      1  -1.36252022E+003  5.53015000E+000   1.04999677E-002      34.89  <-- SCF
      2  -1.36252022E+003  5.53015000E+000   4.27539982E-008      35.08  <-- SCF
      3  -1.36252013E+003  5.49185671E+000  -8.72440514E-005      35.42  <-- SCF
      4  -1.36252010E+003  5.50900590E+000  -2.94223679E-005      35.73  <-- SCF
      5  -1.36252011E+003  5.50910345E+000   8.52918133E-006      35.92  <-- SCF
      6  -1.36252011E+003  5.50909906E+000   4.49326454E-006      36.14  <-- SCF
      7  -1.36252012E+003  5.50915884E+000   6.11343001E-006      36.36  <-- SCF
      8  -1.36252012E+003  5.50924838E+000   1.02364778E-006      36.58  <-- SCF
      9  -1.36252012E+003  5.50924873E+000  -4.99365090E-008      36.75  <-- SCF
     10  -1.36252012E+003  5.50925289E+000  -3.98765855E-008      36.94  <-- SCF
------------------------------------------------------------------------ <-- SCF

Integrated Spin Density     =    0.753601     hbar/2
Integrated |Spin Density|   =    0.840889     hbar/2

Final energy, E             =  -1362.509642665     eV
Final free energy (E-TS)    =  -1362.520121235     eV
(energies not corrected for finite basis set)

NB est. 0K energy (E-0.5TS)      =  -1362.514881950     eV

 ***************** Stress Tensor *****************
 *          Cartesian components (GPa)           *
 *             x             y             z     *
 *  x     -0.026816     -0.000000      0.000000  *
 *  y     -0.000000     -0.026816     -0.000000  *
 *  z      0.000000     -0.000000     -0.026816  *
 *  Pressure:    0.0268                          *

 +------------+-------------+-------------+-----------------+ <-- min BFGS
 |    Step    |   lambda    |   F.delta'  |    enthalpy     | <-- min BFGS
 +------------+-------------+-------------+-----------------+ <-- min BFGS
 |  previous  |    0.000000 |    0.000274 |    -1362.518474 | <-- min BFGS
 | trial step |    1.000000 |   -0.000117 |    -1362.518481 | <-- min BFGS
 +------------+-------------+-------------+-----------------+ <-- min BFGS

 BFGS: finished iteration     2 with enthalpy= -1.36251848E+003 eV

 +-----------+-----------------+-----------------+------------+-----+ <-- BFGS
 | Parameter |      value      |    tolerance    |    units   | OK? | <-- BFGS
 +-----------+-----------------+-----------------+------------+-----+ <-- BFGS
 |  dE/ion   |   7.122623E-006 |   1.000000E-005 |         eV | Yes | <-- BFGS
 |   Smax    |   2.681568E-002 |   5.000000E-002 |        GPa | Yes | <-- BFGS
 +-----------+-----------------+-----------------+------------+-----+ <-- BFGS

 BFGS: Geometry optimization completed successfully.

 BFGS: Final Configuration:

                                      Unit Cell
        Real Lattice(A)              Reciprocal Lattice(1/A)
  -0.0000000   1.7652592   1.7652592       -1.7796779   1.7796779   1.7796779
   1.7652592  -0.0000000   1.7652592        1.7796779  -1.7796779   1.7796779
   1.7652592   1.7652592   0.0000000        1.7796779   1.7796779  -1.7796779

                       Lattice parameters(A)       Cell Angles
                    a =    2.496453          alpha =   60.000000
                    b =    2.496453          beta  =   60.000000
                    c =    2.496453          gamma =   60.000000

                Current cell volume =   11.001589 A**3

 BFGS: Final Enthalpy     = -1.36251848E+003 eV
 BFGS: Final bulk modulus =     222.47387 GPa

 ***************************** Symmetrised Forces *****************************
 *                        Cartesian components (eV/A)                         *
 *                   x                    y                    z              *
 * Ni        1      0.00000              0.00000              0.00000         *

 *********** Symmetrised Stress Tensor ***********
 *          Cartesian components (GPa)           *
 *             x             y             z     *
 *  x     -0.026816     -0.000000      0.000000  *
 *  y     -0.000000     -0.026816     -0.000000  *
 *  z      0.000000     -0.000000     -0.026816  *
 *  Pressure:    0.0268                          *

Writing analysis data to Ni.castep_bin

Writing model to Ni.check

 A BibTeX formatted list of references used in this run has been written to
 Ni.bib

Initialisation time =      8.47 s
Calculation time    =     28.59 s
Finalisation time   =      0.06 s
Total time          =     37.12 s