 | Materials Studio CASTEP version 2017            |
 | Ab Initio Total Energy Program                  |
 | Authors:                                        |
 | M. Segall, M. Probert, C. Pickard, P. Hasnip,   |
 | S. Clark, K. Refson, J. R. Yates, M. Payne      |
 | Contributors:                                   |
 | P. Lindan, P. Haynes, J. White, V. Milman,      |
 | N. Govind, M. Gibson, P. Tulip, V. Cocula,      |
 | B. Montanari, D. Quigley, M. Glover,            |
 | L. Bernasconi, A. Perlov, M. Plummer,           |
 | E. McNellis, J. Meyer, J. Gale, D. Jochym       |
 | J. Aarons, B. Walker, R. Gillen, D. Jones       |
 | T. Green, I. J. Bush, C. J. Armstrong,          |
 | E. J. Higgins, E. L. Brown, M. S. McFly         |
 | Copyright (c) 2000 - 2016                       |
 | Please cite                                     |
 |     "First principles methods using CASTEP"     |
 |         Zeitschrift fuer Kristallographie       |
 |           220(5-6) pp. 567-570 (2005)           |
 | S. J. Clark, M. D. Segall, C. J. Pickard,       |
 | P. J. Hasnip, M. J. Probert, K. Refson,         |
 | M. C. Payne                                     |
 |       in all publications arising from          |
 |              your use of CASTEP                 |

 This version was compiled for x86_64-windows-msvc2008 on May 05 2016
 Intel(R) Math Kernel Library Version 11.1.2
 Fundamental constants values: CODATA 2010

 Warning in parameters_validate: current value of
   ELEC_EIGENVALUE_TOL = 0.100000E-08eV
   is too large to achieve desired level of convergence of response properties.
   This may cause convergence failures and/or inaccuracy of results
   of PHONON calculations - recommend you use a smaller value, e.g.
   ELEC_EIGENVALUE_TOL = 0.500000E-10eV
 |  D D D D    F F F F F  P P P P     T T T T T    |
 |  D       D  F          P       P       T        |
 |  D       D  F F F F    P P P P         T        |
 |  D       D  F          P               T        |
 |  D D D D    F          P               T        |
 | Welcome to Castep Linear Response (DFPT)        |
 | Copyright (c) 2006 - 2016                       |
 | Please cite the following publications in all   |
 | work arising from your use of CASTEP LR.        |
 | K. Refson, S. J. Clark and P. R. Tulip          |
 | Variational density functional perturbation     |
 | theory for dielectrics and lattice dynamics     |
 | Phys. Rev. B 73(15), 155114 (2006)              |

Reading continuation data from model file Ge_PhonDisp.check

 Pseudo atomic calculation performed for Ge 4s2 4p2

 Converged in 25 iterations to a total energy of -102.3132 eV

Initialising basis set for model.
Reinitialising basis set for current geometry.
Continuing from previous run with ground state wavefunction.
Continuing from previous run with ground state density.
 Warning: attempt to modify FINE_GRID_SCALE not allowed
 WARNING: phonon fine_frequency data in check file HAS BEEN DISCARDED.
          because PHONON_FINE_KPOINT_LIST changed on continuation.
 WARNING: phonon thermal ADP data in check file HAS BEEN DISCARDED.
 Calculation parallelised over 2 processes.
 Data is distributed by k-point(2-way)

 ************************************ Title ************************************
 CASTEP calculation from Materials Studio

 ***************************** General Parameters ******************************

 output verbosity                               : normal  (1)
 continuing from                                : Ge_PhonDisp.check
 write checkpoint data to                       : Ge_PhonDisp.check
 type of calculation                            : phonon calculation
 stress calculation                             : off
 density difference calculation                 : off
 electron localisation func (ELF) calculation   : off
 Hirshfeld analysis                             : off
 unlimited duration calculation
 timing information                             : on
 write final potential to formatted file        : off
 write final density to formatted file          : off
 write BibTeX reference list                    : on
 write OTFG pseudopotential files               : on
 checkpoint writing                             : both castep_bin and check files

 output         length unit                     : A
 output           mass unit                     : amu
 output           time unit                     : ps
 output         charge unit                     : e
 output           spin unit                     : hbar/2
 output         energy unit                     : eV
 output          force unit                     : eV/A
 output       velocity unit                     : A/ps
 output       pressure unit                     : GPa
 output     inv_length unit                     : 1/A
 output      frequency unit                     : cm-1
 output force constant unit                     : eV/A**2
 output         volume unit                     : A**3
 output   IR intensity unit                     : (D/A)**2/amu
 output         dipole unit                     : D
 output         efield unit                     : eV/A/e
 output        entropy unit                     : J/mol/K

 wavefunctions paging                           : none
 random number generator seed                   :  152234988
 data distribution                              : optimal for this architecture

 *********************** Exchange-Correlation Parameters ***********************

 using functional                               : Local Density Approximation
 relativistic treatment                         : Koelling-Harmon
 DFT+D: Semi-empirical dispersion correction    : off

 ************************* Pseudopotential Parameters **************************

 pseudopotential representation                 : reciprocal space
 <beta|phi> representation                      : reciprocal space
 spin-orbit coupling                            : off

 **************************** Basis Set Parameters *****************************

 plane wave basis set cut-off                   :   440.0000   eV
 size of standard grid                          :     1.5000
 size of   fine   grid                          :     1.5000
 size of   fine   gmax                          :    16.1197   1/A
 largest prime factor in FFT                    :          5
 finite basis set correction                    : none

 **************************** Electronic Parameters ****************************

 number of  electrons                           :  8.000
 net charge of system                           :  0.000
 treating system as non-spin-polarized
 number of bands                                :          4

 ********************* Electronic Minimization Parameters **********************

 Method: Treating system as non-metallic,
         and number of  SD  steps               :          1
         and number of  CG  steps               :          4

 total energy / atom convergence tol.           : 0.1000E-09   eV
 eigen-energy convergence tolerance             : 0.1000E-08   eV
 max force / atom convergence tol.              : ignored
 convergence tolerance window                   :          3   cycles
 max. number of SCF cycles                      :        100
 periodic dipole correction                     : NONE

 ************************** Density Mixing Parameters **************************

 density-mixing scheme                          : Pulay
 max. length of mixing history                  :         20
 charge density mixing amplitude                : 0.5000
 cut-off energy for mixing                      :  440.0       eV
 charge density mixing g-vector                 :  1.500       1/A

 ****************************** Phonon Parameters ******************************

 phonon calculation method                      : linear response
 phonon convergence tolerance                   : 0.1000E-04   eV/A**2
 max. number of phonon cycles                   :        100
 max. number of phonon CG steps                 :          0
 convergence tolerance window                   :          2   cycles
 DFPT solver method                             : AllBands (Gonze variational method)
 preconditioning scheme                         : TPA
 fine phonon calculation method                 : interpolation
 non-periodic force constant method             : Weighted cumulant sum
 force constant cutoff scale factor             :     1.0000
 LO/TO splitting term                           : included
 acoustic phonon sum rule                       : correct D(q) in recip-space
 Born effective charges                         : calculated
 Born charge sum rule                           : explicitly enforced
 Raman intensities                              : not calculated
 phonon k-points                                : use reduced set
 phonon DOS                                     : not calculated
 backups results every                          :        900   seconds
 band convergence tolerance                     : 0.1000E-08   eV

                                      Unit Cell
        Real Lattice(A)                      Reciprocal Lattice(1/A)
   0.0000000   2.7958833   2.7958833       -1.1236494   1.1236494   1.1236494
   2.7958833   0.0000000   2.7958833        1.1236494  -1.1236494   1.1236494
   2.7958833   2.7958833  -0.0000000        1.1236494   1.1236494  -1.1236494

                       Lattice parameters(A)       Cell Angles
                    a =    3.953976          alpha =   60.000000
                    b =    3.953976          beta  =   60.000000
                    c =    3.953976          gamma =   60.000000

                       Current cell volume =   43.710637       A**3

                                     Cell Contents
                         Total number of ions in cell =    2
                      Total number of species in cell =    1
                        Max number of any one species =    2

            x  Element    Atom        Fractional coordinates of atoms  x
            x            Number           u          v          w      x
            x  Ge           1         0.000000   0.000000   0.000000   x
            x  Ge           2         0.250000   1.250000   0.250000   x

                         No user defined ionic velocities

                                   Details of Species

                               Mass of species in AMU
                                    Ge   72.5899963

                          Electric Quadrupole Moment (Barn)
                                    Ge   -0.1730000 Isotope 73

                          Files used for pseudopotentials:
                                    Ge Ge_00_OP.recpot

                              k-Points For BZ Sampling
                       MP grid size for SCF calculation is  3  3  3
                            with an offset of   0.000  0.000  0.000
                       Number of kpoints used =             4

                               Symmetry and Constraints

                      Maximum deviation from symmetry = 0.200000E-14     ANG

                      Number of symmetry operations   =          48
[...]
 +  q-pt=   28 (  0.375000  0.000000  0.375000)     0.0243902439              +
 +  Acoustic sum rule correction <   0.042114 cm-1 applied                    +
 +     N      Frequency irrep.                                                +
 +                (cm-1)                                                      +
 +     1      72.254128   a                                                   +
 +     2      72.254128   a                                                   +
 +     3     189.881760   b                                                   +
 +     4     274.497375   a                                                   +
 +     5     274.497375   a                                                   +
 +     6     276.001775   c                                                   +
 +        Character table from group theory analysis of eigenvectors          +
 +                           Point Group =  32, Oh                            +
 +  Rep  Mul |    E   2   4   m   m                                           +
 + a       2 |    2  -2   0   0   0                                           +
 + b       1 |    1   1   1   1   1                                           +
 + c       1 |    1   1  -1  -1   1                                           +
 +  q-pt=   29 (  0.416667  0.000000  0.416667)     0.0243902439              +
 +  Acoustic sum rule correction <   0.042189 cm-1 applied                    +
 +     N      Frequency irrep.                                                +
 +                (cm-1)                                                      +
 +     1      72.436619   a                                                   +
 +     2      72.436619   a                                                   +
 +     3     202.478396   b                                                   +
 +     4     264.140323   c                                                   +
 +     5     276.394033   a                                                   +
 +     6     276.394033   a                                                   +
 +        Character table from group theory analysis of eigenvectors          +
 +                           Point Group =  32, Oh                            +
 +  Rep  Mul |    E   2   4   m   m                                           +
 + a       2 |    2  -2   0   0   0                                           +
 + b       1 |    1   1   1   1   1                                           +
 + c       1 |    1   1  -1  -1   1                                           +
 +  q-pt=   30 (  0.458333  0.000000  0.458333)     0.0243902439              +
 +  Acoustic sum rule correction <   0.042160 cm-1 applied                    +
 +     N      Frequency irrep.                                                +
 +                (cm-1)                                                      +
 +     1      72.800311   a                                                   +
 +     2      72.800311   a                                                   +
 +     3     216.456619   b                                                   +
 +     4     248.796573   c                                                   +
 +     5     278.149659   a                                                   +
 +     6     278.149659   a                                                   +
 +        Character table from group theory analysis of eigenvectors          +
 +                           Point Group =  32, Oh                            +
 +  Rep  Mul |    E   2   4   m   m                                           +
 + a       2 |    2  -2   0   0   0                                           +
 + b       1 |    1   1   1   1   1                                           +
 + c       1 |    1   1  -1  -1   1                                           +
 +  q-pt=   31 (  0.500000  0.000000  0.500000)     0.0243902439              +
 +  Acoustic sum rule correction <   0.042226 cm-1 applied                    +
 +     N      Frequency irrep.                                                +
 +                (cm-1)                                                      +
 +     1      72.808653   a                                                   +
 +     2      72.808653   a                                                   +
 +     3     232.220531   b                                                   +
 +     4     232.220531   b                                                   +
 +     5     278.900398   a                                                   +
 +     6     278.900398   a                                                   +
 +        Character table from group theory analysis of eigenvectors          +
 +                           Point Group =  32, Oh                            +
 +  Rep  Mul |    E   2   2   4   2   I   m   m  -4   m                       +
 + a       2 |    2   0  -2   0   0   0   0   0   0   0                       +
 + b       1 |    2   0   2   0   0   0   0   0   0   2                       +
 +  q-pt=   32 (  0.500000  0.041667  0.541667)     0.0243902439              +
 +  Acoustic sum rule correction <   0.038242 cm-1 applied                    +
 +     N      Frequency irrep.                                                +
 +                (cm-1)                                                      +
 +     1      79.849794   a                                                   +
 +     2      79.849794   a                                                   +
 +     3     230.699388   a                                                   +
 +     4     230.699388   a                                                   +
 +     5     278.570393   a                                                   +
 +     6     278.570393   a                                                   +
 +        Character table from group theory analysis of eigenvectors          +
 +                           Point Group =  32, Oh                            +
 +  Rep  Mul |    E   2   m   m                                               +
 + a       3 |    2   0   0   0                                               +
 +  q-pt=   33 (  0.500000  0.083333  0.583333)     0.0243902439              +
 +  Acoustic sum rule correction <   0.031145 cm-1 applied                    +
 +     N      Frequency irrep.                                                +
 +                (cm-1)                                                      +
 +     1      96.040591   a                                                   +
 +     2      96.040591   a                                                   +
 +     3     226.452933   a                                                   +
 +     4     226.452933   a                                                   +
 +     5     277.593530   a                                                   +
 +     6     277.593530   a                                                   +
 +        Character table from group theory analysis of eigenvectors          +
 +                           Point Group =  32, Oh                            +
 +  Rep  Mul |    E   2   m   m                                               +
 + a       3 |    2   0   0   0                                               +
 +  q-pt=   34 (  0.500000  0.125000  0.625000)     0.0243902439              +
 +  Acoustic sum rule correction <   0.025363 cm-1 applied                    +
 +     N      Frequency irrep.                                                +
 +                (cm-1)                                                      +
 +     1     113.819587   a                                                   +
 +     2     113.819587   a                                                   +
 +     3     220.517839   a                                                   +
 +     4     220.517839   a                                                   +
 +     5     275.753642   a                                                   +
 +     6     275.753642   a                                                   +
 +        Character table from group theory analysis of eigenvectors          +
 +                           Point Group =  32, Oh                            +
 +  Rep  Mul |    E   2   m   m                                               +
 + a       3 |    2   0   0   0                                               +
 +  q-pt=   35 (  0.500000  0.166667  0.666667)     0.0243902439              +
 +  Acoustic sum rule correction <   0.021241 cm-1 applied                    +
 +     N      Frequency irrep.                                                +
 +                (cm-1)                                                      +
 +     1     128.914123   a                                                   +
 +     2     128.914123   a                                                   +
 +     3     214.344134   a                                                   +
 +     4     214.344134   a                                                   +
 +     5     272.907389   a                                                   +
 +     6     272.907389   a                                                   +
 +        Character table from group theory analysis of eigenvectors          +
 +                           Point Group =  32, Oh                            +
 +  Rep  Mul |    E   2   m   m                                               +
 + a       3 |    2   0   0   0                                               +
 +  q-pt=   36 (  0.500000  0.208333  0.708333)     0.0243902439              +
 +  Acoustic sum rule correction <   0.018364 cm-1 applied                    +
 +     N      Frequency irrep.                                                +
 +                (cm-1)                                                      +
 +     1     139.231982   a                                                   +
 +     2     139.231982   a                                                   +
 +     3     209.432003   a                                                   +
 +     4     209.432003   a                                                   +
 +     5     269.947161   a                                                   +
 +     6     269.947161   a                                                   +
 +        Character table from group theory analysis of eigenvectors          +
 +                           Point Group =  32, Oh                            +
 +  Rep  Mul |    E   2   m   m                                               +
 + a       3 |    2   0   0   0                                               +
 +  q-pt=   37 (  0.468750  0.281250  0.750000)     0.0243902439              +
 +  Acoustic sum rule correction <   0.014846 cm-1 applied                    +
 +     N      Frequency irrep.                                                +
 +                (cm-1)                                                      +
 +     1     133.114737   a                                                   +
 +     2     145.017276   b                                                   +
 +     3     204.575318   a                                                   +
 +     4     212.998375   b                                                   +
 +     5     267.922701   b                                                   +
 +     6     271.239866   a                                                   +
 +        Character table from group theory analysis of eigenvectors          +
 +                           Point Group =  32, Oh                            +
 +  Rep  Mul |    E   m                                                       +
 + a       3 |    1   1                                                       +
 + b       3 |    1  -1                                                       +
 +  q-pt=   38 (  0.437500  0.312500  0.750000)     0.0243902439              +
 +  Acoustic sum rule correction <   0.014495 cm-1 applied                    +
 +     N      Frequency irrep.                                                +
 +                (cm-1)                                                      +
 +     1     112.721673   a                                                   +
 +     2     144.112839   b                                                   +
 +     3     205.283337   a                                                   +
 +     4     216.988890   b                                                   +
 +     5     269.346862   b                                                   +
 +     6     274.986059   a                                                   +
 +        Character table from group theory analysis of eigenvectors          +
 +                           Point Group =  32, Oh                            +
 +  Rep  Mul |    E   m                                                       +
 + a       3 |    1   1                                                       +
 + b       3 |    1  -1                                                       +
 +  q-pt=   39 (  0.406250  0.343750  0.750000)     0.0243902439              +
 +  Acoustic sum rule correction <   0.014245 cm-1 applied                    +
 +     N      Frequency irrep.                                                +
 +                (cm-1)                                                      +
 +     1      90.950379   a                                                   +
 +     2     141.512218   b                                                   +
 +     3     205.977301   a                                                   +
 +     4     218.428469   b                                                   +
 +     5     272.220383   b                                                   +
 +     6     278.395515   a                                                   +
 +        Character table from group theory analysis of eigenvectors          +
 +                           Point Group =  32, Oh                            +
 +  Rep  Mul |    E   m                                                       +
 + a       3 |    1   1                                                       +
 + b       3 |    1  -1                                                       +
 +  q-pt=   40 (  0.375000  0.375000  0.750000)     0.0243902439              +
 +  Acoustic sum rule correction <   0.014152 cm-1 applied                    +
 +     N      Frequency irrep.                                                +
 +                (cm-1)                                                      +
 +     1      80.933701   a                                                   +
 +     2     140.076765   b                                                   +
 +     3     206.063718   c                                                   +
 +     4     218.532964   b                                                   +
 +     5     273.763029   d                                                   +
 +     6     279.795307   c                                                   +
 +        Character table from group theory analysis of eigenvectors          +
 +                           Point Group =  32, Oh                            +
 +  Rep  Mul |    E   2   m   m                                               +
 + a       1 |    1  -1   1  -1                                               +
 + b       2 |    1  -1  -1   1                                               +
 + c       2 |    1   1   1   1                                               +
 + d       1 |    1   1  -1  -1                                               +
                   Born Effective Charges
   Ge      1         0.00000     0.00000     0.00000
                     0.00000     0.00000     0.00000
                     0.00000     0.00000     0.00000
   Ge      2         0.00000     0.00000     0.00000
                     0.00000     0.00000     0.00000
                     0.00000     0.00000     0.00000

 ***************** Symmetrised Forces *****************
 *            Cartesian components (eV/A)             *
 *                   x            y            z      *
 * Ge        1      0.00000      0.00000      0.00000 *
 * Ge        2      0.00000      0.00000      0.00000 *

Writing analysis data to Ge_PhonDisp.castep_bin

Writing model to Ge_PhonDisp.check

 A BibTeX formatted list of references used in this run has been written to
 Ge_PhonDisp.bib

Initialisation time =      0.66 s
Calculation time    =      0.20 s
Finalisation time   =      0.05 s
Total time          =      0.91 s

Overall parallel efficiency rating: Satisfactory (64%)

Data was distributed by:-
k-point (2-way); efficiency rating: Satisfactory (64%)

Parallel notes:
1) Calculation only took 0.9 s, so efficiency estimates may be inaccurate.