 | Materials Studio CASTEP version 2017            |
 | Ab Initio Total Energy Program                  |
 | Authors:                                        |
 | M. Segall, M. Probert, C. Pickard, P. Hasnip,   |
 | S. Clark, K. Refson, J. R. Yates, M. Payne      |
 | Contributors:                                   |
 | P. Lindan, P. Haynes, J. White, V. Milman,      |
 | N. Govind, M. Gibson, P. Tulip, V. Cocula,      |
 | B. Montanari, D. Quigley, M. Glover,            |
 | L. Bernasconi, A. Perlov, M. Plummer,           |
 | E. McNellis, J. Meyer, J. Gale, D. Jochym       |
 | J. Aarons, B. Walker, R. Gillen, D. Jones       |
 | T. Green, I. J. Bush, C. J. Armstrong,          |
 | E. J. Higgins, E. L. Brown, M. S. McFly         |
 | Copyright (c) 2000 - 2016                       |
 | Please cite                                     |
 |     "First principles methods using CASTEP"     |
 |         Zeitschrift fuer Kristallographie       |
 |           220(5-6) pp. 567-570 (2005)           |
 | S. J. Clark, M. D. Segall, C. J. Pickard,       |
 | P. J. Hasnip, M. J. Probert, K. Refson,         |
 | M. C. Payne                                     |
 |       in all publications arising from          |
 |              your use of CASTEP                 |

 This version was compiled for x86_64-windows-msvc2008 on May 05 2016
 Intel(R) Math Kernel Library Version 11.1.2
 Fundamental constants values: CODATA 2010

 Warning in parameters_validate: current value of
   ELEC_EIGENVALUE_TOL = 0.100000E-08eV
   is too large to achieve desired level of convergence of response properties.
   This may cause convergence failures and/or inaccuracy of results
   of PHONON calculations - recommend you use a smaller value, e.g.
   ELEC_EIGENVALUE_TOL = 0.500000E-10eV
 |  D D D D    F F F F F  P P P P     T T T T T    |
 |  D       D  F          P       P       T        |
 |  D       D  F F F F    P P P P         T        |
 |  D       D  F          P               T        |
 |  D D D D    F          P               T        |
 | Welcome to Castep Linear Response (DFPT)        |
 | Copyright (c) 2006 - 2016                       |
 | Please cite the following publications in all   |
 | work arising from your use of CASTEP LR.        |
 | K. Refson, S. J. Clark and P. R. Tulip          |
 | Variational density functional perturbation     |
 | theory for dielectrics and lattice dynamics     |
 | Phys. Rev. B 73(15), 155114 (2006)              |

Reading continuation data from model file Ge_PhonDOS.check

 Pseudo atomic calculation performed for Ge 4s2 4p2

 Converged in 17 iterations to a total energy of -102.3132 eV

Initialising basis set for model.
Reinitialising basis set for current geometry.
Continuing from previous run with ground state wavefunction.
Continuing from previous run with ground state density.
 Info: BACKUP_INTERVAL modified from          0 to        900
 Warning: attempt to modify FINE_GRID_SCALE not allowed
 Info: ELEC_ENERGY_TOL modified from    0.5000000000000000E-06 eV to    0.1000000000000000E-09 eV
 Info: ELEC_EIGENVALUE_TOL modified from    0.2500000000000000E-06 eV to    0.1000000000000000E-08 eV
 Info: BS_MAX_ITER modified from         60 to        250
 Info: BS_EIGENVALUE_TOL modified from    0.1000000000000000E-05 eV to    0.1000000000000000E-08 eV
 Info: PHONON_MAX_CYCLES modified from         50 to        100
 Info: PHONON_FORCE_CONSTANT_CUTOFF modified from     0.000000000000000     A to     11.85006647400522     A
 Info: PHONON_FINE_METHOD modified from NONE to interpolate
 Info: SPECTRAL_WRITE_EIGENVALUES modified from T to F

 WARNING: Ground state wavefunctions and density data in check file marked as unconverged.
          because some parameters changed on continuation.

 Calculation parallelised over 2 processes.
 Data is distributed by k-point(2-way)

 ************************************ Title ************************************
 CASTEP calculation from Materials Studio

 ***************************** General Parameters ******************************

 output verbosity                               : normal  (1)
 continuing from                                : Ge_PhonDOS.check
 write checkpoint data to                       : Ge_PhonDOS.check
 type of calculation                            : phonon calculation
 stress calculation                             : off
 density difference calculation                 : off
 electron localisation func (ELF) calculation   : off
 Hirshfeld analysis                             : off
 unlimited duration calculation
 timing information                             : on
 write final potential to formatted file        : off
 write final density to formatted file          : off
 write BibTeX reference list                    : on
 write OTFG pseudopotential files               : on
 checkpoint writing                             : both castep_bin and check files

 output         length unit                     : A
 output           mass unit                     : amu
 output           time unit                     : ps
 output         charge unit                     : e
 output           spin unit                     : hbar/2
 output         energy unit                     : eV
 output          force unit                     : eV/A
 output       velocity unit                     : A/ps
 output       pressure unit                     : GPa
 output     inv_length unit                     : 1/A
 output      frequency unit                     : cm-1
 output force constant unit                     : eV/A**2
 output         volume unit                     : A**3
 output   IR intensity unit                     : (D/A)**2/amu
 output         dipole unit                     : D
 output         efield unit                     : eV/A/e
 output        entropy unit                     : J/mol/K

 wavefunctions paging                           : none
 random number generator seed                   :  152234988
 data distribution                              : optimal for this architecture

 *********************** Exchange-Correlation Parameters ***********************

 using functional                               : Local Density Approximation
 relativistic treatment                         : Koelling-Harmon
 DFT+D: Semi-empirical dispersion correction    : off

 ************************* Pseudopotential Parameters **************************

 pseudopotential representation                 : reciprocal space
 <beta|phi> representation                      : reciprocal space
 spin-orbit coupling                            : off

 **************************** Basis Set Parameters *****************************

 plane wave basis set cut-off                   :   440.0000   eV
 size of standard grid                          :     1.5000
 size of   fine   grid                          :     1.5000
 size of   fine   gmax                          :    16.1197   1/A
 largest prime factor in FFT                    :          5
 finite basis set correction                    : none

 **************************** Electronic Parameters ****************************

 number of  electrons                           :  8.000
 net charge of system                           :  0.000
 treating system as non-spin-polarized
 number of bands                                :          4

 ********************* Electronic Minimization Parameters **********************

 Method: Treating system as non-metallic,
         and number of  SD  steps               :          1
         and number of  CG  steps               :          4

 total energy / atom convergence tol.           : 0.1000E-09   eV
 eigen-energy convergence tolerance             : 0.1000E-08   eV
 max force / atom convergence tol.              : ignored
 convergence tolerance window                   :          3   cycles
 max. number of SCF cycles                      :        100
 periodic dipole correction                     : NONE

 ************************** Density Mixing Parameters **************************

 density-mixing scheme                          : Pulay
 max. length of mixing history                  :         20
 charge density mixing amplitude                : 0.5000
 cut-off energy for mixing                      :  440.0       eV
 charge density mixing g-vector                 :  1.500       1/A

 ****************************** Phonon Parameters ******************************

 phonon calculation method                      : linear response
 phonon convergence tolerance                   : 0.1000E-04   eV/A**2
 max. number of phonon cycles                   :        100
 max. number of phonon CG steps                 :          0
 convergence tolerance window                   :          2   cycles
 DFPT solver method                             : AllBands (Gonze variational method)
 preconditioning scheme                         : TPA
 fine phonon calculation method                 : interpolation
 non-periodic force constant method             : Weighted cumulant sum
 force constant cutoff scale factor             :     1.0000
 LO/TO splitting term                           : included
 acoustic phonon sum rule                       : correct D(q) in recip-space
 Born effective charges                         : calculated
 Born charge sum rule                           : explicitly enforced
 Raman intensities                              : not calculated
 phonon k-points                                : use reduced set
 phonon DOS                                     : not calculated
 backups results every                          :        900   seconds
 band convergence tolerance                     : 0.1000E-08   eV

                                      Unit Cell
        Real Lattice(A)                      Reciprocal Lattice(1/A)
   0.0000000   2.7958833   2.7958833       -1.1236494   1.1236494   1.1236494
   2.7958833   0.0000000   2.7958833        1.1236494  -1.1236494   1.1236494
   2.7958833   2.7958833  -0.0000000        1.1236494   1.1236494  -1.1236494

                       Lattice parameters(A)       Cell Angles
                    a =    3.953976          alpha =   60.000000
                    b =    3.953976          beta  =   60.000000
                    c =    3.953976          gamma =   60.000000

                       Current cell volume =   43.710637       A**3

                                     Cell Contents
                         Total number of ions in cell =    2
                      Total number of species in cell =    1
                        Max number of any one species =    2

            x  Element    Atom        Fractional coordinates of atoms  x
            x            Number           u          v          w      x
            x  Ge           1         0.000000   0.000000   0.000000   x
            x  Ge           2         0.250000   1.250000   0.250000   x

                         No user defined ionic velocities

                                   Details of Species

                               Mass of species in AMU
                                    Ge   72.5899963

[...]
 +     1      60.141689   a                                                   +
 +     2      70.241511   b                                                   +
 +     3     175.820982   b                                                   +
 +     4     277.372486   b                                                   +
 +     5     291.297990   b                                                   +
 +     6     294.280502   a                                                   +
 +        Character table from group theory analysis of eigenvectors          +
 +                           Point Group =  32, Oh                            +
 +  Rep  Mul |    E   m                                                       +
 + a       2 |    1  -1                                                       +
 + b       4 |    1   1                                                       +
 +  q-pt=   49 (  0.312500 -0.062500 -0.187500)     0.0234375000              +
 +  Acoustic sum rule correction <   0.032460 cm-1 applied                    +
 +     N      Frequency irrep.                                                +
 +                (cm-1)                                                      +
 +     1      91.879893   a                                                   +
 +     2     114.040479   a                                                   +
 +     3     185.481277   a                                                   +
 +     4     248.275201   a                                                   +
 +     5     281.358011   a                                                   +
 +     6     285.984121   a                                                   +
 +        Character table from group theory analysis of eigenvectors          +
 +                           Point Group =  32, Oh                            +
 +  Rep  Mul |    E                                                           +
 + a       6 |    1                                                           +
 +  q-pt=   50 (  0.312500 -0.187500 -0.187500)     0.0117187500              +
 +  Acoustic sum rule correction <   0.025437 cm-1 applied                    +
 +     N      Frequency irrep.                                                +
 +                (cm-1)                                                      +
 +     1      89.625134   a                                                   +
 +     2     125.544845   b                                                   +
 +     3     193.956881   b                                                   +
 +     4     241.289450   b                                                   +
 +     5     278.782780   b                                                   +
 +     6     283.179929   a                                                   +
 +        Character table from group theory analysis of eigenvectors          +
 +                           Point Group =  32, Oh                            +
 +  Rep  Mul |    E   m                                                       +
 + a       2 |    1  -1                                                       +
 + b       4 |    1   1                                                       +
 +  q-pt=   51 (  0.187500  0.187500  0.187500)     0.0039062500              +
 +  Acoustic sum rule correction <   0.036665 cm-1 applied                    +
 +     N      Frequency irrep.                                                +
 +                (cm-1)                                                      +
 +     1      61.610373   a                                                   +
 +     2      61.610373   a                                                   +
 +     3     118.339498   b                                                   +
 +     4     286.822836   b                                                   +
 +     5     303.129427   a                                                   +
 +     6     303.129427   a                                                   +
 +        Character table from group theory analysis of eigenvectors          +
 +                           Point Group =  32, Oh                            +
 +  Rep  Mul |    E   3   m                                                   +
 + a       2 |    2  -1   0                                                   +
 + b       2 |    1   1   1                                                   +
 +  q-pt=   52 (  0.187500  0.187500  0.062500)     0.0117187500              +
 +  Acoustic sum rule correction <   0.037126 cm-1 applied                    +
 +     N      Frequency irrep.                                                +
 +                (cm-1)                                                      +
 +     1      75.716915   a                                                   +
 +     2      77.709688   b                                                   +
 +     3     107.796590   b                                                   +
 +     4     290.586361   b                                                   +
 +     5     295.281651   a                                                   +
 +     6     297.907146   b                                                   +
 +        Character table from group theory analysis of eigenvectors          +
 +                           Point Group =  32, Oh                            +
 +  Rep  Mul |    E   m                                                       +
 + a       2 |    1  -1                                                       +
 + b       4 |    1   1                                                       +
 +  q-pt=   53 (  0.187500  0.187500 -0.062500)     0.0117187500              +
 +  Acoustic sum rule correction <   0.034073 cm-1 applied                    +
 +     N      Frequency irrep.                                                +
 +                (cm-1)                                                      +
 +     1      84.851378   a                                                   +
 +     2      89.700723   b                                                   +
 +     3     132.763376   b                                                   +
 +     4     279.693960   b                                                   +
 +     5     282.240149   a                                                   +
 +     6     288.818214   b                                                   +
 +        Character table from group theory analysis of eigenvectors          +
 +                           Point Group =  32, Oh                            +
 +  Rep  Mul |    E   m                                                       +
 + a       2 |    1  -1                                                       +
 + b       4 |    1   1                                                       +
 +  q-pt=   54 (  0.187500  0.187500 -0.187500)     0.0117187500              +
 +  Acoustic sum rule correction <   0.027816 cm-1 applied                    +
 +     N      Frequency irrep.                                                +
 +                (cm-1)                                                      +
 +     1      86.526119   a                                                   +
 +     2     116.650654   b                                                   +
 +     3     158.364553   b                                                   +
 +     4     269.449094   b                                                   +
 +     5     281.551442   b                                                   +
 +     6     283.386208   a                                                   +
 +        Character table from group theory analysis of eigenvectors          +
 +                           Point Group =  32, Oh                            +
 +  Rep  Mul |    E   m                                                       +
 + a       2 |    1  -1                                                       +
 + b       4 |    1   1                                                       +
 +  q-pt=   55 (  0.187500  0.062500  0.062500)     0.0117187500              +
 +  Acoustic sum rule correction <   0.049227 cm-1 applied                    +
 +     N      Frequency irrep.                                                +
 +                (cm-1)                                                      +
 +     1      59.691802   a                                                   +
 +     2      66.120442   b                                                   +
 +     3     101.537704   b                                                   +
 +     4     293.095556   b                                                   +
 +     5     302.475389   b                                                   +
 +     6     308.492367   a                                                   +
 +        Character table from group theory analysis of eigenvectors          +
 +                           Point Group =  32, Oh                            +
 +  Rep  Mul |    E   m                                                       +
 + a       2 |    1  -1                                                       +
 + b       4 |    1   1                                                       +
 +  q-pt=   56 (  0.187500  0.062500 -0.062500)     0.0234375000              +
 +  Acoustic sum rule correction <   0.040420 cm-1 applied                    +
 +     N      Frequency irrep.                                                +
 +                (cm-1)                                                      +
 +     1      75.161133   a                                                   +
 +     2      82.574586   a                                                   +
 +     3     119.656367   a                                                   +
 +     4     285.376003   a                                                   +
 +     5     292.289436   a                                                   +
 +     6     299.306793   a                                                   +
 +        Character table from group theory analysis of eigenvectors          +
 +                           Point Group =  32, Oh                            +
 +  Rep  Mul |    E                                                           +
 + a       6 |    1                                                           +
 +  q-pt=   57 (  0.187500  0.062500 -0.187500)     0.0234375000              +
 +  Acoustic sum rule correction <   0.032884 cm-1 applied                    +
 +     N      Frequency irrep.                                                +
 +                (cm-1)                                                      +
 +     1      91.389174   a                                                   +
 +     2     108.049471   a                                                   +
 +     3     148.154858   a                                                   +
 +     4     271.619478   a                                                   +
 +     5     284.811933   a                                                   +
 +     6     288.903648   a                                                   +
 +        Character table from group theory analysis of eigenvectors          +
 +                           Point Group =  32, Oh                            +
 +  Rep  Mul |    E                                                           +
 + a       6 |    1                                                           +
 +  q-pt=   58 (  0.187500 -0.062500 -0.062500)     0.0117187500              +
 +  Acoustic sum rule correction <   0.044304 cm-1 applied                    +
 +     N      Frequency irrep.                                                +
 +                (cm-1)                                                      +
 +     1      68.412269   a                                                   +
 +     2      72.380241   b                                                   +
 +     3     135.053095   b                                                   +
 +     4     283.175921   b                                                   +
 +     5     295.575019   a                                                   +
 +     6     296.825460   b                                                   +
 +        Character table from group theory analysis of eigenvectors          +
 +                           Point Group =  32, Oh                            +
 +  Rep  Mul |    E   m                                                       +
 + a       2 |    1  -1                                                       +
 + b       4 |    1   1                                                       +
 +  q-pt=   59 (  0.062500  0.062500  0.062500)     0.0039062500              +
 +  Acoustic sum rule correction <   0.102986 cm-1 applied                    +
 +     N      Frequency irrep.                                                +
 +                (cm-1)                                                      +
 +     1      29.010941   a                                                   +
 +     2      29.010941   a                                                   +
 +     3      68.756502   b                                                   +
 +     4     313.609773   b                                                   +
 +     5     317.723987   a                                                   +
 +     6     317.723987   a                                                   +
 +        Character table from group theory analysis of eigenvectors          +
 +                           Point Group =  32, Oh                            +
 +  Rep  Mul |    E   3   m                                                   +
 + a       2 |    2  -1   0                                                   +
 + b       2 |    1   1   1                                                   +
 +  q-pt=   60 (  0.062500  0.062500 -0.062500)     0.0117187500              +
 +  Acoustic sum rule correction <   0.056993 cm-1 applied                    +
 +     N      Frequency irrep.                                                +
 +                (cm-1)                                                      +
 +     1      53.767605   a                                                   +
 +     2      54.380764   b                                                   +
 +     3      85.371360   a                                                   +
 +     4     302.378021   a                                                   +
 +     5     308.985867   b                                                   +
 +     6     310.967420   a                                                   +
 +        Character table from group theory analysis of eigenvectors          +
 +                           Point Group =  32, Oh                            +
 +  Rep  Mul |    E   m                                                       +
 + a       4 |    1   1                                                       +
 + b       2 |    1  -1                                                       +
                   Born Effective Charges
   Ge      1         0.00000     0.00000     0.00000
                     0.00000     0.00000     0.00000
                     0.00000     0.00000     0.00000
   Ge      2         0.00000     0.00000     0.00000
                     0.00000     0.00000     0.00000
                     0.00000     0.00000     0.00000

 ***************** Symmetrised Forces *****************
 *            Cartesian components (eV/A)             *
 *                   x            y            z      *
 * Ge        1      0.00000      0.00000      0.00000 *
 * Ge        2      0.00000      0.00000      0.00000 *

Writing analysis data to Ge_PhonDOS.castep_bin

Writing model to Ge_PhonDOS.check

 A BibTeX formatted list of references used in this run has been written to
 Ge_PhonDOS.bib

Initialisation time =      0.23 s
Calculation time    =     65.48 s
Finalisation time   =      0.02 s
Total time          =     65.73 s

Overall parallel efficiency rating: Excellent (93%)

Data was distributed by:-
k-point (2-way); efficiency rating: Excellent (97%)

Parallel notes:
1) Calculation only took 65.8 s, so efficiency estimates may be inaccurate.
                             Thermodynamics

            Zero-point energy =         0.074190  eV
       T(K)        E(eV)           F(eV)         S(J/mol/K)      Cv(J/mol/K)
     298.0        0.167551       -0.014654          58.994          45.736

                      Atomic Displacement Parameters (A**2)

      T(K)  Ion        U11       U22       U33       U23       U31       U12
     298.0  Ge 1     0.005178  0.005178  0.005178 -0.000000 -0.000000  0.000000
     298.0  Ge 2     0.005178  0.005178  0.005178 -0.000000 -0.000000  0.000000