 | Materials Studio CASTEP version 2017            |
 | Ab Initio Total Energy Program                  |
 | Authors:                                        |
 | M. Segall, M. Probert, C. Pickard, P. Hasnip,   |
 | S. Clark, K. Refson, J. R. Yates, M. Payne      |
 | Contributors:                                   |
 | P. Lindan, P. Haynes, J. White, V. Milman,      |
 | N. Govind, M. Gibson, P. Tulip, V. Cocula,      |
 | B. Montanari, D. Quigley, M. Glover,            |
 | L. Bernasconi, A. Perlov, M. Plummer,           |
 | E. McNellis, J. Meyer, J. Gale, D. Jochym       |
 | J. Aarons, B. Walker, R. Gillen, D. Jones       |
 | T. Green, I. J. Bush, C. J. Armstrong,          |
 | E. J. Higgins, E. L. Brown, M. S. McFly         |
 | Copyright (c) 2000 - 2016                       |
 | Please cite                                     |
 |     "First principles methods using CASTEP"     |
 |         Zeitschrift fuer Kristallographie       |
 |           220(5-6) pp. 567-570 (2005)           |
 | S. J. Clark, M. D. Segall, C. J. Pickard,       |
 | P. J. Hasnip, M. J. Probert, K. Refson,         |
 | M. C. Payne                                     |
 |       in all publications arising from          |
 |              your use of CASTEP                 |

 This version was compiled for x86_64-windows-msvc2008 on May 05 2016
 Intel(R) Math Kernel Library Version 11.1.2
 Fundamental constants values: CODATA 2010

 Atomic calculation performed for Pd:

 Converged in 117 iterations to an ae energy of -137306.547 eV

 Identity difference: 4.15E-03

 Warning: ion_atom_descreen_psp: negative charge density encountered
   | Pseudopotential Report - Date of generation 23-08-2019   |
   | Element: Pd Ionic charge: 18.00 Level of theory: PBE     |
   | Atomic Solver: Koelling-Harmon                           |
   |               Reference Electronic Structure             |
   |         Orbital         Occupation         Energy        |
   |            4s              2.000           -3.024        |
   |            4p              6.000           -1.769        |
   |            4d             10.000           -0.035        |
   |            5s              0.500           -0.024        |
   |                 Pseudopotential Definition               |
   |        Beta     l      e      Rc     scheme   norm       |
   |          1      0   -3.024   1.602     qc      0         |
   |          2      0   -0.024   1.602     qc      0         |
   |          3      0    0.250   1.602     qc      0         |
   |          4      1   -1.769   1.602     qc      0         |
   |          5      1    0.250   1.602     qc      0         |
   |          6      2   -0.035   1.602     qc      0         |
   |          7      2    0.250   1.602     qc      0         |
   |         loc     3    0.000   1.602     pn      0         |
   | Augmentation charge Rinner = 1.120                       |
   | Partial core correction Rc = 1.120                       |
   | "3|1.6|15|18.8|20.6|40U:50UU:41UU:42UU{5s0.5}(qc=7)[]"   |
   |      Author: Chris J. Pickard, Cambridge University      |

 Doing a self consistent calculation for the test configuration

 Atomic calculation performed for Pd:

 Converged in 117 iterations to an ae energy of -137306.547 eV

 AE eigenvalue nl 10 =     -887.98549682
 AE eigenvalue nl 20 =     -129.55227025
 AE eigenvalue nl 21 =     -116.13666558
 AE eigenvalue nl 30 =      -23.26518136
 AE eigenvalue nl 31 =      -18.85550066
 AE eigenvalue nl 32 =      -11.85263732
 AE eigenvalue nl 40 =       -3.02406957
 AE eigenvalue nl 41 =       -1.76878223
 AE eigenvalue nl 42 =       -0.03486337
 AE eigenvalue nl 50 =       -0.02425157
 PS eigenvalue nl 40 =       -3.02359467
 PS eigenvalue nl 41 =       -1.76832424
 PS eigenvalue nl 42 =       -0.03448227
 PS eigenvalue nl 50 =       -0.02391477
 Maximum eigenvalue error:   4.75E-04

 Derived cutoff energies: C=  14 M=  16 F=  20 E=  22

 Pseudo atomic calculation performed for Pd 4s2 4p6 4d10 5s0.5

 Converged in 63 iterations to a total energy of -3490.1038 eV

 Calculation parallelised over 2 processes.
 Data is distributed by k-point(2-way)

 ************************************ Title ************************************
 CASTEP calculation from Materials Studio

 ***************************** General Parameters ******************************

 output verbosity                               : normal  (1)
 write checkpoint data to                       : Pd.check
 type of calculation                            : geometry optimization
 stress calculation                             : on
 density difference calculation                 : off
 electron localisation func (ELF) calculation   : off
 Hirshfeld analysis                             : off
 unlimited duration calculation
 timing information                             : on
 write final potential to formatted file        : off
 write final density to formatted file          : off
 write BibTeX reference list                    : on
 write OTFG pseudopotential files               : on
 checkpoint writing                             : both castep_bin and check files

 output         length unit                     : A
 output           mass unit                     : amu
 output           time unit                     : ps
 output         charge unit                     : e
 output           spin unit                     : hbar/2
 output         energy unit                     : eV
 output          force unit                     : eV/A
 output       velocity unit                     : A/ps
 output       pressure unit                     : GPa
 output     inv_length unit                     : 1/A
 output      frequency unit                     : cm-1
 output force constant unit                     : eV/A**2
 output         volume unit                     : A**3
 output   IR intensity unit                     : (D/A)**2/amu
 output         dipole unit                     : D
 output         efield unit                     : eV/A/e
 output        entropy unit                     : J/mol/K

 wavefunctions paging                           : none
 random number generator seed                   : randomised (130031830)
 data distribution                              : optimal for this architecture

 *********************** Exchange-Correlation Parameters ***********************

 using functional                               : Perdew Burke Ernzerhof
 relativistic treatment                         : Koelling-Harmon
 DFT+D: Semi-empirical dispersion correction    : off

 ************************* Pseudopotential Parameters **************************

 pseudopotential representation                 : reciprocal space
 <beta|phi> representation                      : reciprocal space
 spin-orbit coupling                            : off

 **************************** Basis Set Parameters *****************************

 plane wave basis set cut-off                   :   560.6000   eV
 size of standard grid                          :     1.7500
 size of   fine   grid                          :     2.1000
 size of   fine   gmax                          :    25.4733   1/A
 largest prime factor in FFT                    :          5
 finite basis set correction                    : automatic
 number of sample energies                      :          3
           sample  spacing                      :     5.0000   eV

 **************************** Electronic Parameters ****************************

 number of  electrons                           :  18.00
 net charge of system                           :  0.000
 treating system as non-spin-polarized
 number of bands                                :         13

 ********************* Electronic Minimization Parameters **********************

 Method: Treating system as metallic with density mixing treatment of electrons,
         and number of  SD  steps               :          1
         and number of  CG  steps               :          4

 total energy / atom convergence tol.           : 0.1000E-05   eV
 eigen-energy convergence tolerance             : 0.7692E-07   eV
 max force / atom convergence tol.              : ignored
 convergence tolerance window                   :          3   cycles
 max. number of SCF cycles                      :        100
 number of fixed-spin iterations                :         10
 smearing scheme                                : Gaussian
 smearing width                                 : 0.1000       eV
 Fermi energy convergence tolerance             : 0.2721E-13   eV
 periodic dipole correction                     : NONE

 ************************** Density Mixing Parameters **************************

 density-mixing scheme                          : Pulay
 max. length of mixing history                  :         20
 charge density mixing amplitude                : 0.5000
 cut-off energy for mixing                      :  560.6       eV
 charge density mixing g-vector                 :  1.500       1/A

 ********************** Geometry Optimization Parameters ***********************

 optimization method                            : BFGS
 variable cell method                           : fixed basis quality
 max. number of steps                           :        100
 estimated bulk modulus                         :  500.0       GPa
 estimated <frequency>                          :  1668.       cm-1
 geom line minimiser                            : on
 with line minimiser tolerance                  :     0.4000
 total energy convergence tolerance             : 0.1000E-04   eV/atom
        max ionic |force| tolerance             : 0.3000E-01   eV/A
 max ionic |displacement| tolerance             : 0.1000E-02   A
   max |stress component| tolerance             : 0.5000E-01   GPa
 convergence tolerance window                   :          2   steps
 backup results every                           :          5   steps

                                      Unit Cell
        Real Lattice(A)                      Reciprocal Lattice(1/A)
   0.0000000   1.9453500   1.9453500       -1.6149241   1.6149241   1.6149241
   1.9453500   0.0000000   1.9453500        1.6149241  -1.6149241   1.6149241
   1.9453500   1.9453500   0.0000000        1.6149241   1.6149241  -1.6149241

                       Lattice parameters(A)       Cell Angles
                    a =    2.751140          alpha =   60.000000
                    b =    2.751140          beta  =   60.000000
                    c =    2.751140          gamma =   60.000000

                       Current cell volume =   14.723913       A**3

                                     Cell Contents
                         Total number of ions in cell =    1
                      Total number of species in cell =    1
                        Max number of any one species =    1

            x  Element    Atom        Fractional coordinates of atoms  x
            x            Number           u          v          w      x
            x  Pd           1         0.000000   0.000000   0.000000   x

                         No user defined ionic velocities

                                   Details of Species

                               Mass of species in AMU
                                    Pd  106.4000015

                          Electric Quadrupole Moment (Barn)
                                    Pd    0.6600000 Isotope105

                          Files used for pseudopotentials:
                                    Pd 3|1.6|15|18.8|20.6|40U:50UU:41UU:42UU{5s0.5}(qc=7)[]

                              k-Points For BZ Sampling
                       MP grid size for SCF calculation is 11 11 11
                            with an offset of   0.000  0.000  0.000
                       Number of kpoints used =            56

                               Symmetry and Constraints

                      Maximum deviation from symmetry = 0.117501E-14     ANG

                      Number of symmetry operations   =          48
         There are no ionic constraints specified or generated for this cell
                      Point group of crystal =    32: Oh, m-3m, 4/m -3 2/m
                      Space group of crystal =   225: Fm-3m, -F 4 2 3

             Set iprint > 1 for details on symmetry rotations/translations

                         Centre of mass is NOT constrained

                         Number of cell constraints= 5
                         Cell constraints are:  1 1 1 0 0 0

                         External pressure/stress (GPa)
                          0.00000   0.00000   0.00000
                                    0.00000   0.00000
                                              0.00000

Final energy, E             =  -3493.128490868     eV
Final free energy (E-TS)    =  -3493.141377695     eV
(energies not corrected for finite basis set)

NB est. 0K energy (E-0.5TS)      =  -3493.134934282     eV

Calculating total energy with cut-off of  555.600eV.
------------------------------------------------------------------------ <-- SCF
SCF loop      Energy           Fermi           Energy gain       Timer   <-- SCF
                               energy          per atom          (sec)   <-- SCF
------------------------------------------------------------------------ <-- SCF
Initial  -3.49312848E+003  0.00000000E+000                        25.39  <-- SCF
      1  -3.49315330E+003  1.43142444E+001   2.48256690E-002      26.03  <-- SCF
      2  -3.49315331E+003  1.43142441E+001   5.88134489E-006      26.89  <-- SCF
      3  -3.49315331E+003  1.43158934E+001  -1.40227406E-006      27.56  <-- SCF
      4  -3.49315331E+003  1.43144550E+001   1.76240656E-006      28.20  <-- SCF
      5  -3.49315331E+003  1.43162497E+001   2.13333023E-008      28.77  <-- SCF
      6  -3.49315331E+003  1.43152513E+001  -3.25173541E-007      29.16  <-- SCF
------------------------------------------------------------------------ <-- SCF

[...]

Calculating total energy with cut-off of  560.600eV.
------------------------------------------------------------------------ <-- SCF
SCF loop      Energy           Fermi           Energy gain       Timer   <-- SCF
                               energy          per atom          (sec)   <-- SCF
------------------------------------------------------------------------ <-- SCF
Initial  -3.49314039E+003  0.00000000E+000                        29.34  <-- SCF
      1  -3.49316415E+003  1.43144479E+001   2.37537926E-002      29.88  <-- SCF
      2  -3.49316415E+003  1.43144477E+001   4.51131827E-006      30.45  <-- SCF
      3  -3.49316415E+003  1.43160547E+001  -1.06912683E-006      30.86  <-- SCF
      4  -3.49316415E+003  1.43146853E+001   1.62696979E-006      31.28  <-- SCF
      5  -3.49316415E+003  1.43164125E+001   1.77795565E-008      31.70  <-- SCF
      6  -3.49316415E+003  1.43154435E+001  -3.03848746E-007      32.12  <-- SCF
------------------------------------------------------------------------ <-- SCF

[...]

 For future reference: finite basis dEtot/dlog(Ecut) =      -1.246304eV
 Total energy corrected for finite basis set =   -3493.163879 eV

 ***************** Stress Tensor *****************
 *          Cartesian components (GPa)           *
 *             x             y             z     *
 *  x     -9.897714      0.000000      0.000000  *
 *  y      0.000000     -9.897714      0.000000  *
 *  z      0.000000      0.000000     -9.897714  *
 *  Pressure:    9.8977                          *
 BFGS: finished iteration     0 with enthalpy= -3.49316388E+003 eV

 +-----------+-----------------+-----------------+------------+-----+ <-- BFGS
 | Parameter |      value      |    tolerance    |    units   | OK? | <-- BFGS
 +-----------+-----------------+-----------------+------------+-----+ <-- BFGS
 |  dE/ion   |   0.000000E+000 |   1.000000E-005 |         eV | No  | <-- BFGS
 |   Smax    |   9.897714E+000 |   5.000000E-002 |        GPa | No  | <-- BFGS
 +-----------+-----------------+-----------------+------------+-----+ <-- BFGS

 Starting BFGS iteration          1 ...

 +------------+-------------+-------------+-----------------+ <-- min BFGS
 |    Step    |   lambda    |   F.delta'  |    enthalpy     | <-- min BFGS
 +------------+-------------+-------------+-----------------+ <-- min BFGS
 |  previous  |    0.000000 |    0.057897 |    -3493.163879 | <-- min BFGS
 +------------+-------------+-------------+-----------------+ <-- min BFGS

 BFGS: starting iteration         1 with trial guess (lambda=  1.000000)

[...]

------------------------------------------------------------------------ <-- SCF
SCF loop      Energy           Fermi           Energy gain       Timer   <-- SCF
                               energy          per atom          (sec)   <-- SCF
------------------------------------------------------------------------ <-- SCF
Initial  -3.49294754E+003  0.00000000E+000                        32.70  <-- SCF
      1  -3.49344066E+003  1.31185058E+001   4.93128189E-001      33.22  <-- SCF
      2  -3.49344433E+003  1.31184929E+001   3.66830595E-003      33.98  <-- SCF
      3  -3.49318286E+003  1.41065120E+001  -2.61471915E-001      34.61  <-- SCF
      4  -3.49317737E+003  1.39201039E+001  -5.49438689E-003      35.23  <-- SCF
      5  -3.49317691E+003  1.39029001E+001  -4.54078363E-004      35.97  <-- SCF
      6  -3.49317692E+003  1.39012582E+001   3.58923067E-006      36.50  <-- SCF
      7  -3.49317692E+003  1.39013541E+001   8.75791457E-008      36.89  <-- SCF
      8  -3.49317692E+003  1.39013294E+001   9.69681498E-009      37.28  <-- SCF
------------------------------------------------------------------------ <-- SCF

[...]

 ***************** Stress Tensor *****************
 *          Cartesian components (GPa)           *
 *             x             y             z     *
 *  x     -6.009756      0.000000     -0.000000  *
 *  y      0.000000     -6.009756      0.000000  *
 *  z     -0.000000      0.000000     -6.009756  *
 *  Pressure:    6.0098                          *

 +------------+-------------+-------------+-----------------+ <-- min BFGS
 |    Step    |   lambda    |   F.delta'  |    enthalpy     | <-- min BFGS
 +------------+-------------+-------------+-----------------+ <-- min BFGS
 |  previous  |    0.000000 |    0.057897 |    -3493.163879 | <-- min BFGS
 | trial step |    1.000000 |    0.035620 |    -3493.176787 | <-- min BFGS
 +------------+-------------+-------------+-----------------+ <-- min BFGS

 BFGS: improving iteration         1 with line minimization (lambda=  2.598926)

[...]

 +------------+-------------+-------------+-----------------+ <-- min BFGS
 |    Step    |   lambda    |   F.delta'  |    enthalpy     | <-- min BFGS
 +------------+-------------+-------------+-----------------+ <-- min BFGS
 |  previous  |    0.000000 |    0.057897 |    -3493.163879 | <-- min BFGS
 | trial step |    1.000000 |    0.035620 |    -3493.176787 | <-- min BFGS
 |  line step |    2.598926 |    0.003665 |    -3493.183855 | <-- min BFGS
 +------------+-------------+-------------+-----------------+ <-- min BFGS

 BFGS: finished iteration     1 with enthalpy= -3.49318385E+003 eV

[...]

 +-----------+-----------------+-----------------+------------+-----+ <-- BFGS
 | Parameter |      value      |    tolerance    |    units   | OK? | <-- BFGS
 +-----------+-----------------+-----------------+------------+-----+ <-- BFGS
 |  dE/ion   |   3.618487E-005 |   1.000000E-005 |         eV | No  | <-- BFGS
 |   Smax    |   1.209717E-001 |   5.000000E-002 |        GPa | No  | <-- BFGS
 +-----------+-----------------+-----------------+------------+-----+ <-- BFGS

[...]

 +-----------+-----------------+-----------------+------------+-----+ <-- BFGS
 | Parameter |      value      |    tolerance    |    units   | OK? | <-- BFGS
 +-----------+-----------------+-----------------+------------+-----+ <-- BFGS
 |  dE/ion   |   7.078119E-005 |   1.000000E-005 |         eV | No  | <-- BFGS
 |   Smax    |   1.445161E-002 |   5.000000E-002 |        GPa | Yes | <-- BFGS
 +-----------+-----------------+-----------------+------------+-----+ <-- BFGS

 Starting BFGS iteration          4 ...

 +------------+-------------+-------------+-----------------+ <-- min BFGS
 |    Step    |   lambda    |   F.delta'  |    enthalpy     | <-- min BFGS
 +------------+-------------+-------------+-----------------+ <-- min BFGS
 |  previous  |    0.000000 |    0.000088 |    -3493.183748 | <-- min BFGS
 +------------+-------------+-------------+-----------------+ <-- min BFGS

 BFGS: starting iteration         4 with trial guess (lambda=  1.000000)

[...]

------------------------------------------------------------------------ <-- SCF
SCF loop      Energy           Fermi           Energy gain       Timer   <-- SCF
                               energy          per atom          (sec)   <-- SCF
------------------------------------------------------------------------ <-- SCF
Initial  -3.49316990E+003  0.00000000E+000                        51.22  <-- SCF
      1  -3.49318373E+003  1.31826980E+001   1.38349242E-002      51.77  <-- SCF
      2  -3.49318374E+003  1.31826980E+001   5.62311634E-008      52.17  <-- SCF
      3  -3.49318373E+003  1.31780769E+001  -5.54997956E-006      52.75  <-- SCF
      4  -3.49318373E+003  1.31789624E+001  -1.81078623E-007      53.12  <-- SCF
      5  -3.49318373E+003  1.31790529E+001  -3.50888894E-008      53.53  <-- SCF
------------------------------------------------------------------------ <-- SCF

Final energy, E             =  -3493.169944594     eV
Final free energy (E-TS)    =  -3493.183729274     eV
(energies not corrected for finite basis set)

NB est. 0K energy (E-0.5TS)      =  -3493.176836934     eV

 ***************** Stress Tensor *****************
 *          Cartesian components (GPa)           *
 *             x             y             z     *
 *  x      0.001945      0.000000      0.000000  *
 *  y      0.000000      0.001945     -0.000000  *
 *  z      0.000000     -0.000000      0.001945  *
 *  Pressure:   -0.0019                          *

 +------------+-------------+-------------+-----------------+ <-- min BFGS
 |    Step    |   lambda    |   F.delta'  |    enthalpy     | <-- min BFGS
 +------------+-------------+-------------+-----------------+ <-- min BFGS
 |  previous  |    0.000000 |    0.000088 |    -3493.183748 | <-- min BFGS
 | trial step |    1.000000 |    0.000012 |    -3493.183748 | <-- min BFGS
 +------------+-------------+-------------+-----------------+ <-- min BFGS

 BFGS: finished iteration     4 with enthalpy= -3.49318375E+003 eV

 +-----------+-----------------+-----------------+------------+-----+ <-- BFGS
 | Parameter |      value      |    tolerance    |    units   | OK? | <-- BFGS
 +-----------+-----------------+-----------------+------------+-----+ <-- BFGS
 |  dE/ion   |   4.800689E-008 |   1.000000E-005 |         eV | Yes | <-- BFGS
 |   Smax    |   1.944572E-003 |   5.000000E-002 |        GPa | Yes | <-- BFGS
 +-----------+-----------------+-----------------+------------+-----+ <-- BFGS

 BFGS: Geometry optimization completed successfully.

 BFGS: Final Configuration:

                                      Unit Cell
        Real Lattice(A)              Reciprocal Lattice(1/A)
   0.0000000   1.9814690   1.9814690       -1.5854866   1.5854866   1.5854866
   1.9814690  -0.0000000   1.9814690        1.5854866  -1.5854866   1.5854866
   1.9814690   1.9814690  -0.0000000        1.5854866   1.5854866  -1.5854866

                       Lattice parameters(A)       Cell Angles
                    a =    2.802220          alpha =   60.000000
                    b =    2.802220          beta  =   60.000000
                    c =    2.802220          gamma =   60.000000

                Current cell volume =   15.559365 A**3

 BFGS: Final Enthalpy     = -3.49318375E+003 eV
 BFGS: Final bulk modulus =     228.18726 GPa

 ***************************** Symmetrised Forces *****************************
 *                        Cartesian components (eV/A)                         *
 *                   x                    y                    z              *
 * Pd        1      0.00000              0.00000              0.00000         *

 *********** Symmetrised Stress Tensor ***********
 *          Cartesian components (GPa)           *
 *             x             y             z     *
 *  x      0.001945      0.000000      0.000000  *
 *  y      0.000000      0.001945     -0.000000  *
 *  z      0.000000     -0.000000      0.001945  *
 *  Pressure:   -0.0019                          *

Writing analysis data to Pd.castep_bin

Writing model to Pd.check

 A BibTeX formatted list of references used in this run has been written to
 Pd.bib

Initialisation time =     14.80 s
Calculation time    =     38.95 s
Finalisation time   =      0.09 s
Total time          =     53.84 s

Overall parallel efficiency rating: Very good (83%)

Data was distributed by:-
k-point (2-way); efficiency rating: Very good (85%)

Parallel notes:
1) Calculation only took 53.9 s, so efficiency estimates may be inaccurate.