 | Materials Studio CASTEP version 2017            |
 | Ab Initio Total Energy Program                  |
 | Authors:                                        |
 | M. Segall, M. Probert, C. Pickard, P. Hasnip,   |
 | S. Clark, K. Refson, J. R. Yates, M. Payne      |
 | Contributors:                                   |
 | P. Lindan, P. Haynes, J. White, V. Milman,      |
 | N. Govind, M. Gibson, P. Tulip, V. Cocula,      |
 | B. Montanari, D. Quigley, M. Glover,            |
 | L. Bernasconi, A. Perlov, M. Plummer,           |
 | E. McNellis, J. Meyer, J. Gale, D. Jochym       |
 | J. Aarons, B. Walker, R. Gillen, D. Jones       |
 | T. Green, I. J. Bush, C. J. Armstrong,          |
 | E. J. Higgins, E. L. Brown, M. S. McFly         |
 | Copyright (c) 2000 - 2016                       |
 | Please cite                                     |
 |     "First principles methods using CASTEP"     |
 |         Zeitschrift fuer Kristallographie       |
 |           220(5-6) pp. 567-570 (2005)           |
 | S. J. Clark, M. D. Segall, C. J. Pickard,       |
 | P. J. Hasnip, M. J. Probert, K. Refson,         |
 | M. C. Payne                                     |
 |       in all publications arising from          |
 |              your use of CASTEP                 |

 This version was compiled for x86_64-windows-msvc2008 on May 05 2016
 Intel(R) Math Kernel Library Version 11.1.2
 Fundamental constants values: CODATA 2010

 Atomic calculation performed for C: 1s2 2s2 2p2

 Converged in 54 iterations to an ae energy of -1027.632 eV

 Identity difference: 2.37E-04

   | Pseudopotential Report - Date of generation  1-08-2019   |
   | Element: C Ionic charge:  4.00 Level of theory: PBE      |
   | Atomic Solver: Koelling-Harmon                           |
   |               Reference Electronic Structure             |
   |         Orbital         Occupation         Energy        |
   |            2s              2.000           -0.505        |
   |            2p              2.000           -0.194        |
   |                 Pseudopotential Definition               |
   |        Beta     l      e      Rc     scheme   norm       |
   |          1      0   -0.505   1.395     qc      0         |
   |          2      0    0.250   1.395     qc      0         |
   |          3      1   -0.194   1.395     qc      0         |
   |          4      1    0.250   1.395     qc      0         |
   |         loc     2    0.000   1.395     pn      0         |
   | Augmentation charge Rinner = 0.983                       |
   | Partial core correction Rc = 0.983                       |
   | "2|1.4|11|12|14.7|20UU:21UU(qc=7)[]"                     |
   |      Author: Chris J. Pickard, Cambridge University      |

 Doing a self consistent calculation for the test configuration

 Atomic calculation performed for C: 1s2 2s2 2p2

[...]

 AE eigenvalue nl 10 =      -10.04653081
 AE eigenvalue nl 20 =       -0.50533429
 AE eigenvalue nl 21 =       -0.19423807
 PS eigenvalue nl 20 =       -0.50531853
 PS eigenvalue nl 21 =       -0.19422214
 Maximum eigenvalue error:   1.59E-05

 Derived cutoff energies: C=   6 M=  10 F=  12 E=  16

 Atomic calculation performed for O: 1s2 2s2 2p4

[...]

   | Pseudopotential Report - Date of generation  1-08-2019   |
   | Element: O Ionic charge:  6.00 Level of theory: PBE      |
   | Atomic Solver: Koelling-Harmon                           |
   |               Reference Electronic Structure             |
   |         Orbital         Occupation         Energy        |
   |            2s              2.000           -0.881        |
   |            2p              4.000           -0.332        |
   |                 Pseudopotential Definition               |
   |        Beta     l      e      Rc     scheme   norm       |
   |          1      0   -0.881   1.100     qc      0         |
   |          2      0    0.250   1.100     qc      0         |
   |          3      1   -0.332   1.100     qc      0         |
   |          4      1    0.250   1.100     qc      0         |
   |         loc     2    0.000   1.100     pn      0         |
   | Augmentation charge Rinner = 0.769                       |
   | Partial core correction Rc = 0.769                       |
   | "2|1.1|14|18|21|20UU:21UU(qc=7)[]"                       |
   |      Author: Chris J. Pickard, Cambridge University      |

[...]

 Atomic calculation performed for O: 1s2 2s2 2p4

[...]

 Atomic calculation performed for Pd:

[...]

 Identity difference: 4.15E-03

 Warning: ion_atom_descreen_psp: negative charge density encountered
   | Pseudopotential Report - Date of generation  1-08-2019   |
   | Element: Pd Ionic charge: 18.00 Level of theory: PBE     |
   | Atomic Solver: Koelling-Harmon                           |
   |               Reference Electronic Structure             |
   |         Orbital         Occupation         Energy        |
   |            4s              2.000           -3.024        |
   |            4p              6.000           -1.769        |
   |            4d             10.000           -0.035        |
   |            5s              0.500           -0.024        |
   |                 Pseudopotential Definition               |
   |        Beta     l      e      Rc     scheme   norm       |
   |          1      0   -3.024   1.602     qc      0         |
   |          2      0   -0.024   1.602     qc      0         |
   |          3      0    0.250   1.602     qc      0         |
   |          4      1   -1.769   1.602     qc      0         |
   |          5      1    0.250   1.602     qc      0         |
   |          6      2   -0.035   1.602     qc      0         |
   |          7      2    0.250   1.602     qc      0         |
   |         loc     3    0.000   1.602     pn      0         |
   | Augmentation charge Rinner = 1.120                       |
   | Partial core correction Rc = 1.120                       |
   | "3|1.6|15|18.8|20.6|40U:50UU:41UU:42UU{5s0.5}(qc=7)[]"   |
   |      Author: Chris J. Pickard, Cambridge University      |

 Doing a self consistent calculation for the test configuration

 Atomic calculation performed for Pd:

 Converged in 117 iterations to an ae energy of -137306.547 eV

 AE eigenvalue nl 10 =     -887.98549682
 AE eigenvalue nl 20 =     -129.55227025
 AE eigenvalue nl 21 =     -116.13666558
 AE eigenvalue nl 30 =      -23.26518136
 AE eigenvalue nl 31 =      -18.85550066
 AE eigenvalue nl 32 =      -11.85263732
 AE eigenvalue nl 40 =       -3.02406957
 AE eigenvalue nl 41 =       -1.76878223
 AE eigenvalue nl 42 =       -0.03486337
 AE eigenvalue nl 50 =       -0.02425157
 PS eigenvalue nl 40 =       -3.02358228
 PS eigenvalue nl 41 =       -1.76830313
 PS eigenvalue nl 42 =       -0.03447713
 PS eigenvalue nl 50 =       -0.02390852
 Maximum eigenvalue error:   4.87E-04

 Derived cutoff energies: C=  14 M=  17 F=  20 E=  22

 Pseudo atomic calculation performed for C 2s2 2p2

 Converged in 18 iterations to a total energy of -148.5199 eV

 Pseudo atomic calculation performed for O 2s2 2p4

[...]

 Pseudo atomic calculation performed for Pd 4s2 4p6 4d10 5s0.5

 Converged in 64 iterations to a total energy of -3490.1082 eV

 Calculation parallelised over 2 processes.
 Data is distributed by k-point(2-way)

 ************************************ Title ************************************
 CASTEP calculation from Materials Studio

 ***************************** General Parameters ******************************

 output verbosity                               : normal  (1)
 write checkpoint data to                       : _1x1__CO_on_Pd__1_1_0_.check
 type of calculation                            : geometry optimization
 stress calculation                             : off
 density difference calculation                 : off
 electron localisation func (ELF) calculation   : off
 Hirshfeld analysis                             : off
 unlimited duration calculation
 timing information                             : on
 write final potential to formatted file        : off
 write final density to formatted file          : off
 write BibTeX reference list                    : on
 write OTFG pseudopotential files               : on
 checkpoint writing                             : both castep_bin and check files

 output         length unit                     : A
 output           mass unit                     : amu
 output           time unit                     : ps
 output         charge unit                     : e
 output           spin unit                     : hbar/2
 output         energy unit                     : eV
 output          force unit                     : eV/A
 output       velocity unit                     : A/ps
 output       pressure unit                     : GPa
 output     inv_length unit                     : 1/A
 output      frequency unit                     : cm-1
 output force constant unit                     : eV/A**2
 output         volume unit                     : A**3
 output   IR intensity unit                     : (D/A)**2/amu
 output         dipole unit                     : D
 output         efield unit                     : eV/A/e
 output        entropy unit                     : J/mol/K

 wavefunctions paging                           : none
 random number generator seed                   : randomised (133525456)
 data distribution                              : optimal for this architecture

 *********************** Exchange-Correlation Parameters ***********************

 using functional                               : Perdew Burke Ernzerhof
 relativistic treatment                         : Koelling-Harmon
 DFT+D: Semi-empirical dispersion correction    : off

 ************************* Pseudopotential Parameters **************************

 pseudopotential representation                 : reciprocal space
 <beta|phi> representation                      : reciprocal space
 spin-orbit coupling                            : off

 **************************** Basis Set Parameters *****************************

 plane wave basis set cut-off                   :   571.4000   eV
 size of standard grid                          :     1.7500
 size of   fine   grid                          :     2.1000
 size of   fine   gmax                          :    25.7175   1/A
 largest prime factor in FFT                    :          5
 finite basis set correction                    : none

 **************************** Electronic Parameters ****************************

 number of  electrons                           :  64.00
 net charge of system                           :  0.000
 treating system as non-spin-polarized
 number of bands                                :         39

 ********************* Electronic Minimization Parameters **********************

 Method: Treating system as metallic with density mixing treatment of electrons,
         and number of  SD  steps               :          1
         and number of  CG  steps               :          4

 total energy / atom convergence tol.           : 0.1000E-05   eV
 eigen-energy convergence tolerance             : 0.1282E-06   eV
[...]

 BFGS: starting iteration         1 with trial guess (lambda=  1.000000)

                                     Cell Contents

[...]

------------------------------------------------------------------------ <-- SCF
SCF loop      Energy           Fermi           Energy gain       Timer   <-- SCF
                               energy          per atom          (sec)   <-- SCF
------------------------------------------------------------------------ <-- SCF
Initial  -1.10751691E+004  0.00000000E+000                        66.48  <-- SCF
      1  -1.10752249E+004  3.24342363E+000   1.11636451E-002      67.66  <-- SCF
      2  -1.10752249E+004  3.24342362E+000   2.81314363E-008      68.78  <-- SCF
      3  -1.10752249E+004  3.24362033E+000   2.38205377E-009      69.92  <-- SCF
      4  -1.10752249E+004  3.24344945E+000   1.17209420E-008      71.06  <-- SCF
------------------------------------------------------------------------ <-- SCF

[...]

 *********************************** Forces ***********************************
 *                        Cartesian components (eV/A)                         *
 *                   x                    y                    z              *
 * C         1      0.00000              0.00000              0.03078         *
 * O         1      0.00000              0.00000              0.03639         *
 * Pd        1      0.00000(cons'd)      0.00000(cons'd)      0.47115(cons'd) *
 * Pd        2      0.00000              0.00000              0.02647         *
 * Pd        3      0.00000(cons'd)      0.00000(cons'd)     -0.56479(cons'd) *

 +------------+-------------+-------------+-----------------+ <-- min BFGS
 |    Step    |   lambda    |   F.delta'  |    enthalpy     | <-- min BFGS
 +------------+-------------+-------------+-----------------+ <-- min BFGS
 |  previous  |    0.000000 |    0.022306 |   -11075.224931 | <-- min BFGS
 | trial step |    1.000000 |    0.021562 |   -11075.224931 | <-- min BFGS
 +------------+-------------+-------------+-----------------+ <-- min BFGS

 BFGS: Warning - trial step suggests complex energy landscape
                 in which simple line minimization will fail.

               - This is usually an indication that the forces/streses
                 are not accurate enough. Consider making the following changes:

                 1) Increase cutoff_energy or basis_precision
                 2) Reduce elec_energy_tol and/or elec_force_tol
                 3) Increase grid_scale
                 4) Increase fine_grid_scale

               - Proceeding with a bisection search to find root instead.

 BFGS: improving iteration         1 with bisection search (lambda=  0.500000)

[...]

 BFGS: looks like bisection search has succeeded in going downhill
 BFGS: finished iteration     1 with enthalpy= -1.10752249E+004 eV

 +-----------+-----------------+-----------------+------------+-----+ <-- BFGS
 | Parameter |      value      |    tolerance    |    units   | OK? | <-- BFGS
 +-----------+-----------------+-----------------+------------+-----+ <-- BFGS
 |  dE/ion   |   2.180639E-007 |   1.000000E-005 |         eV | Yes | <-- BFGS
 |  |F|max   |   3.692198E-002 |   3.000000E-002 |       eV/A | No  | <-- BFGS
 |  |dR|max  |   2.532818E-005 |   1.000000E-003 |          A | Yes | <-- BFGS
 +-----------+-----------------+-----------------+------------+-----+ <-- BFGS

[...]

 BFGS: improving iteration         2 with line minimization (lambda=  6.998720)

[...]

 +------------+-------------+-------------+-----------------+ <-- min BFGS
 |    Step    |   lambda    |   F.delta'  |    enthalpy     | <-- min BFGS
 +------------+-------------+-------------+-----------------+ <-- min BFGS
 |  previous  |    0.000000 |    0.022719 |   -11075.224932 | <-- min BFGS
 | trial step |    1.000000 |    0.019473 |   -11075.224935 | <-- min BFGS
 |  line step |    6.998720 |    0.021344 |   -11075.224930 | <-- min BFGS
 +------------+-------------+-------------+-----------------+ <-- min BFGS

 BFGS: improving iteration         2 with quad minimization (lambda=  1.000000)

[...]

 +------------+-------------+-------------+-----------------+ <-- min BFGS
 |    Step    |   lambda    |   F.delta'  |    enthalpy     | <-- min BFGS
 +------------+-------------+-------------+-----------------+ <-- min BFGS
 |  previous  |    0.000000 |    0.022719 |   -11075.224932 | <-- min BFGS
 | trial step |    1.000000 |    0.019473 |   -11075.224935 | <-- min BFGS
 |  line step |    6.998720 |    0.021344 |   -11075.224930 | <-- min BFGS
 |  quad step |    1.000000 |    0.021617 |   -11075.224931 | <-- min BFGS
 +------------+-------------+-------------+-----------------+ <-- min BFGS

 BFGS: reverting to earlier configuration

[...]

 BFGS: finished iteration     2 with enthalpy= -1.10752249E+004 eV

[...]

 BFGS: Warning - looks like bisection search has failed?
 BFGS:         - reverting to earlier configuration and reseting inverse Hessian
 BFGS: finished iteration     3 with enthalpy= -1.10752249E+004 eV

[...]

 BFGS: Warning - trial step suggests complex energy landscape
                 in which simple line minimization will fail.

               - This is usually an indication that the forces/streses
                 are not accurate enough. Consider making the following changes:

                 1) Increase cutoff_energy or basis_precision
                 2) Reduce elec_energy_tol and/or elec_force_tol
                 3) Increase grid_scale
                 4) Increase fine_grid_scale

               - Proceeding with a bisection search to find root instead.

[...]

 BFGS: improving iteration         4 with bisection search (lambda=  0.031250)

[...]

 BFGS: Warning - looks like bisection search has failed?
 BFGS:         - reverting to earlier configuration and reseting inverse Hessian
 BFGS: finished iteration     4 with enthalpy= -1.10752249E+004 eV

[...]

 BFGS: Warning - Repeated consecutive reset of inverse Hessian
 BFGS:           without satisfying convergence criteria which
 BFGS:           looks like BFGS has run out of search directions.
 BFGS: Warning - Lets try allowing some uphill steps and see if
 BFGS:           we can get around this barrier.
 BFGS: Warning - It is possible that the system may now converge to
 BFGS:           a stationary point OTHER than the desired minimum.
 BFGS: Hint    - this may be an indication that either:
 BFGS:           a) you are using a poor guess at geom_frequency_est
 BFGS:           and/or geom_modulus_est, or
 BFGS:           b) you are using unrealistic convergence criteria.
 BFGS:           Suggest therefore that you consider changing them!

[...]

 BFGS: improving iteration         5 with line minimization (lambda=-16.385849)

[...]

 +-----------+-----------------+-----------------+------------+-----+ <-- BFGS
 | Parameter |      value      |    tolerance    |    units   | OK? | <-- BFGS
 +-----------+-----------------+-----------------+------------+-----+ <-- BFGS
 |  dE/ion   |   3.698757E-008 |   1.000000E-005 |         eV | Yes | <-- BFGS
 |  |F|max   |   4.401582E-002 |   3.000000E-002 |       eV/A | No  | <-- BFGS
 |  |dR|max  |   7.937507E-004 |   1.000000E-003 |          A | Yes | <-- BFGS
 +-----------+-----------------+-----------------+------------+-----+ <-- BFGS

[...]

 BFGS: reverting to earlier configuration

[...]

 Starting BFGS iteration         14 ...
 BFGS: forbidding uphill steps from now on

[...]

 +-----------+-----------------+-----------------+------------+-----+ <-- BFGS
 | Parameter |      value      |    tolerance    |    units   | OK? | <-- BFGS
 +-----------+-----------------+-----------------+------------+-----+ <-- BFGS
 |  dE/ion   |   3.256016E-005 |   1.000000E-005 |         eV | No  | <-- BFGS
 |  |F|max   |   3.735105E-002 |   3.000000E-002 |       eV/A | No  | <-- BFGS
 |  |dR|max  |   9.212974E-004 |   1.000000E-003 |          A | Yes | <-- BFGS
 +-----------+-----------------+-----------------+------------+-----+ <-- BFGS

[...]

 +-----------+-----------------+-----------------+------------+-----+ <-- BFGS
 | Parameter |      value      |    tolerance    |    units   | OK? | <-- BFGS
 +-----------+-----------------+-----------------+------------+-----+ <-- BFGS
 |  dE/ion   |   8.777461E-005 |   1.000000E-005 |         eV | No  | <-- BFGS
 |  |F|max   |   3.784058E-002 |   3.000000E-002 |       eV/A | No  | <-- BFGS
 |  |dR|max  |   2.458312E-003 |   1.000000E-003 |          A | No  | <-- BFGS
 +-----------+-----------------+-----------------+------------+-----+ <-- BFGS

[...]

 +-----------+-----------------+-----------------+------------+-----+ <-- BFGS
 | Parameter |      value      |    tolerance    |    units   | OK? | <-- BFGS
 +-----------+-----------------+-----------------+------------+-----+ <-- BFGS
 |  dE/ion   |   2.575626E-005 |   1.000000E-005 |         eV | No  | <-- BFGS
 |  |F|max   |   2.083254E-002 |   3.000000E-002 |       eV/A | Yes | <-- BFGS
 |  |dR|max  |   1.132316E-003 |   1.000000E-003 |          A | No  | <-- BFGS
 +-----------+-----------------+-----------------+------------+-----+ <-- BFGS

[...]

 BFGS: improving iteration        17 with line minimization (lambda=  0.820909)

[...]

 +------------+-------------+-------------+-----------------+ <-- min BFGS
 |    Step    |   lambda    |   F.delta'  |    enthalpy     | <-- min BFGS
 +------------+-------------+-------------+-----------------+ <-- min BFGS
 |  previous  |    0.000000 |    0.003573 |   -11075.224026 | <-- min BFGS
 | trial step |    1.000000 |   -0.000779 |   -11075.223816 | <-- min BFGS
 |  line step |    0.820909 |    0.000251 |   -11075.223858 | <-- min BFGS
 +------------+-------------+-------------+-----------------+ <-- min BFGS

 BFGS: improving iteration        17 with quad minimization (lambda=  0.872193)

[...]

 +------------+-------------+-------------+-----------------+ <-- min BFGS
 |    Step    |   lambda    |   F.delta'  |    enthalpy     | <-- min BFGS
 +------------+-------------+-------------+-----------------+ <-- min BFGS
 |  previous  |    0.000000 |    0.003573 |   -11075.224026 | <-- min BFGS
 | trial step |    1.000000 |   -0.000779 |   -11075.223816 | <-- min BFGS
 |  line step |    0.820909 |    0.000251 |   -11075.223858 | <-- min BFGS
 |  quad step |    0.872193 |   -0.000305 |   -11075.223846 | <-- min BFGS
 +------------+-------------+-------------+-----------------+ <-- min BFGS

 BFGS: reverting to earlier configuration and reseting inverse Hessian
 BFGS: updated estimated <frequency>  =2184.24338 cm-1
 BFGS: finished iteration    17 with enthalpy= -1.10752240E+004 eV

 +-----------+-----------------+-----------------+------------+-----+ <-- BFGS
 | Parameter |      value      |    tolerance    |    units   | OK? | <-- BFGS
 +-----------+-----------------+-----------------+------------+-----+ <-- BFGS
 |  dE/ion   |   2.575626E-005 |   1.000000E-005 |         eV | No  | <-- BFGS
 |  |F|max   |   2.083254E-002 |   3.000000E-002 |       eV/A | Yes | <-- BFGS
 |  |dR|max  |   1.132316E-003 |   1.000000E-003 |          A | No  | <-- BFGS
 +-----------+-----------------+-----------------+------------+-----+ <-- BFGS

 Starting BFGS iteration         18 ...

 +------------+-------------+-------------+-----------------+ <-- min BFGS
 |    Step    |   lambda    |   F.delta'  |    enthalpy     | <-- min BFGS
 +------------+-------------+-------------+-----------------+ <-- min BFGS
 |  previous  |    0.000000 |    0.012886 |   -11075.224026 | <-- min BFGS
 +------------+-------------+-------------+-----------------+ <-- min BFGS

 BFGS: starting iteration        18 with trial guess (lambda=  1.000000)

[...]

------------------------------------------------------------------------ <-- SCF
SCF loop      Energy           Fermi           Energy gain       Timer   <-- SCF
                               energy          per atom          (sec)   <-- SCF
------------------------------------------------------------------------ <-- SCF
Initial  -1.10752022E+004  0.00000000E+000                       399.39  <-- SCF
      1  -1.10752240E+004  3.24899727E+000   4.35106395E-003     400.41  <-- SCF
      2  -1.10752240E+004  3.24899710E+000   6.30474783E-006     401.52  <-- SCF
      3  -1.10752240E+004  3.24779220E+000  -7.73287352E-007     402.39  <-- SCF
      4  -1.10752240E+004  3.24874187E+000   1.83273268E-006     403.22  <-- SCF
      5  -1.10752240E+004  3.24828836E+000  -2.09672827E-006     404.08  <-- SCF
      6  -1.10752240E+004  3.24786045E+000   2.50037378E-007     404.83  <-- SCF
      7  -1.10752240E+004  3.24787447E+000   1.50561266E-008     405.53  <-- SCF
------------------------------------------------------------------------ <-- SCF

Final energy, E             =  -11075.17824700     eV
Final free energy (E-TS)    =  -11075.22402582     eV
(energies not corrected for finite basis set)

NB est. 0K energy (E-0.5TS)      =  -11075.20113641     eV

 *********************************** Forces ***********************************
 *                        Cartesian components (eV/A)                         *
 *                   x                    y                    z              *
 * C         1      0.00000              0.00000              0.01355         *
 * O         1      0.00000              0.00000             -0.01669         *
 * Pd        1      0.00000(cons'd)      0.00000(cons'd)      0.51557(cons'd) *
 * Pd        2      0.00000              0.00000              0.01987         *
 * Pd        3      0.00000(cons'd)      0.00000(cons'd)     -0.53231(cons'd) *

 +------------+-------------+-------------+-----------------+ <-- min BFGS
 |    Step    |   lambda    |   F.delta'  |    enthalpy     | <-- min BFGS
 +------------+-------------+-------------+-----------------+ <-- min BFGS
 |  previous  |    0.000000 |    0.012886 |   -11075.224026 | <-- min BFGS
 | trial step |    1.000000 |    0.011608 |   -11075.224026 | <-- min BFGS
 +------------+-------------+-------------+-----------------+ <-- min BFGS

 BFGS: finished iteration    18 with enthalpy= -1.10752240E+004 eV

 +-----------+-----------------+-----------------+------------+-----+ <-- BFGS
 | Parameter |      value      |    tolerance    |    units   | OK? | <-- BFGS
 +-----------+-----------------+-----------------+------------+-----+ <-- BFGS
 |  dE/ion   |   8.464412E-009 |   1.000000E-005 |         eV | Yes | <-- BFGS
 |  |F|max   |   1.987081E-002 |   3.000000E-002 |       eV/A | Yes | <-- BFGS
 |  |dR|max  |   1.709929E-005 |   1.000000E-003 |          A | Yes | <-- BFGS
 +-----------+-----------------+-----------------+------------+-----+ <-- BFGS

 BFGS: Geometry optimization completed successfully.

 BFGS: Final Configuration:

                                     Cell Contents

            x  Element    Atom        Fractional coordinates of atoms  x
            x            Number           u          v          w      x
            x  C            1        -0.500000   0.000000   0.387010   x
            x  O            1        -0.500000   0.000000   0.495021   x
            x  Pd           1        -0.500000   0.500000  -0.000000   x
            x  Pd           2        -0.500000  -0.500000   0.250800   x
            x  Pd           3         0.000000   0.000000   0.129714   x

 BFGS: Final Enthalpy     = -1.10752240E+004 eV
 BFGS: Final <frequency>  =    2184.24338 cm-1

  *** There were at least     8 warnings during this run ***
  *** => please check the whole of this file carefully!  ***

 ***************************** Symmetrised Forces *****************************
 *                        Cartesian components (eV/A)                         *
 *                   x                    y                    z              *
 * C         1      0.00000              0.00000              0.01355         *
 * O         1      0.00000              0.00000             -0.01669         *
 * Pd        1      0.00000(cons'd)      0.00000(cons'd)      0.51557(cons'd) *
 * Pd        2      0.00000              0.00000              0.01987         *
 * Pd        3      0.00000(cons'd)      0.00000(cons'd)     -0.53231(cons'd) *

Writing analysis data to _1x1__CO_on_Pd__1_1_0_.castep_bin

Writing model to _1x1__CO_on_Pd__1_1_0_.check

 A BibTeX formatted list of references used in this run has been written to
 _1x1__CO_on_Pd__1_1_0_.bib

Initialisation time =     23.64 s
Calculation time    =    382.97 s
Finalisation time   =      0.14 s
Total time          =    406.75 s

Overall parallel efficiency rating: Excellent (96%)

Data was distributed by:-
k-point (2-way); efficiency rating: Excellent (96%)

Parallel notes:
1) Calculation only took 406.8 s, so efficiency estimates may be inaccurate.