 | Materials Studio CASTEP version 2017            |
 | Ab Initio Total Energy Program                  |
 | Authors:                                        |
 | M. Segall, M. Probert, C. Pickard, P. Hasnip,   |
 | S. Clark, K. Refson, J. R. Yates, M. Payne      |
 | Contributors:                                   |
 | P. Lindan, P. Haynes, J. White, V. Milman,      |
 | N. Govind, M. Gibson, P. Tulip, V. Cocula,      |
 | B. Montanari, D. Quigley, M. Glover,            |
 | L. Bernasconi, A. Perlov, M. Plummer,           |
 | E. McNellis, J. Meyer, J. Gale, D. Jochym       |
 | J. Aarons, B. Walker, R. Gillen, D. Jones       |
 | T. Green, I. J. Bush, C. J. Armstrong,          |
 | E. J. Higgins, E. L. Brown, M. S. McFly         |
 | Copyright (c) 2000 - 2016                       |
 | Please cite                                     |
 |     "First principles methods using CASTEP"     |
 |         Zeitschrift fuer Kristallographie       |
 |           220(5-6) pp. 567-570 (2005)           |
 | S. J. Clark, M. D. Segall, C. J. Pickard,       |
 | P. J. Hasnip, M. J. Probert, K. Refson,         |
 | M. C. Payne                                     |
 |       in all publications arising from          |
 |              your use of CASTEP                 |

 This version was compiled for x86_64-windows-msvc2008 on May 05 2016
 Intel(R) Math Kernel Library Version 11.1.2
 Fundamental constants values: CODATA 2010

 Warning in parameters_validate: current value of
   ELEC_EIGENVALUE_TOL = 0.100000E-08eV
   is too large to achieve desired level of convergence of response properties.
   This may cause convergence failures and/or inaccuracy of results
   of PHONON+EFIELD calculations - recommend you use a smaller value, e.g.
   ELEC_EIGENVALUE_TOL = 0.500000E-10eV
 |  D D D D    F F F F F  P P P P     T T T T T    |
 |  D       D  F          P       P       T        |
 |  D       D  F F F F    P P P P         T        |
 |  D       D  F          P               T        |
 |  D D D D    F          P               T        |
 | Welcome to Castep Linear Response (DFPT)        |
 | Copyright (c) 2006 - 2016                       |
 | Please cite the following publications in all   |
 | work arising from your use of CASTEP LR.        |
 | K. Refson, S. J. Clark and P. R. Tulip          |
 | Variational density functional perturbation     |
 | theory for dielectrics and lattice dynamics     |
 | Phys. Rev. B 73(15), 155114 (2006)              |

Reading continuation data from model file Ge_Efield.check

 Pseudo atomic calculation performed for Ge 4s2 4p2

 Converged in 17 iterations to a total energy of -102.3132 eV

Initialising basis set for model.
Reinitialising basis set for current geometry.
Continuing from previous run with ground state wavefunction.
Continuing from previous run with ground state density.
 Info: BACKUP_INTERVAL modified from          0 to        900
 Warning: attempt to modify FINE_GRID_SCALE not allowed
 Info: ELEC_ENERGY_TOL modified from    0.5000000000000000E-06 eV to    0.1000000000000000E-09 eV
 Info: ELEC_EIGENVALUE_TOL modified from    0.2500000000000000E-06 eV to    0.1000000000000000E-08 eV
 Info: BS_MAX_ITER modified from         60 to        200
 Info: PHONON_MAX_CYCLES modified from         50 to        100
 Info: CALCULATE_RAMAN modified from F to T
 Info: RAMAN_RANGE_HIGH modified from     1.000000000000000     eV to     1.239841929200420     eV
 Info: EFIELD_MAX_CYCLES modified from         50 to        500
 Info: SPECTRAL_WRITE_EIGENVALUES modified from T to F

 WARNING: Ground state wavefunctions and density data in check file marked as unconverged.
          because some parameters changed on continuation.

 Calculation parallelised over 2 processes.
 Data is distributed by k-point(2-way)

 ************************************ Title ************************************
 CASTEP calculation from Materials Studio

 ***************************** General Parameters ******************************

 output verbosity                               : normal  (1)
 continuing from                                : Ge_Efield.check
 write checkpoint data to                       : Ge_Efield.check
 type of calculation                            : Phonon followed by E-field
 stress calculation                             : off
 density difference calculation                 : off
 electron localisation func (ELF) calculation   : off
 Hirshfeld analysis                             : off
 unlimited duration calculation
 timing information                             : on
 write final potential to formatted file        : off
 write final density to formatted file          : off
 write BibTeX reference list                    : on
 write OTFG pseudopotential files               : on
 checkpoint writing                             : both castep_bin and check files

 output         length unit                     : A
 output           mass unit                     : amu
 output           time unit                     : ps
 output         charge unit                     : e
 output           spin unit                     : hbar/2
 output         energy unit                     : eV
 output          force unit                     : eV/A
 output       velocity unit                     : A/ps
 output       pressure unit                     : GPa
 output     inv_length unit                     : 1/A
 output      frequency unit                     : cm-1
 output force constant unit                     : eV/A**2
 output         volume unit                     : A**3
 output   IR intensity unit                     : (D/A)**2/amu
 output         dipole unit                     : D
 output         efield unit                     : eV/A/e
 output        entropy unit                     : J/mol/K

 wavefunctions paging                           : none
 random number generator seed                   :  155542932
 data distribution                              : optimal for this architecture

 *********************** Exchange-Correlation Parameters ***********************

 using functional                               : Local Density Approximation
 relativistic treatment                         : Koelling-Harmon
 DFT+D: Semi-empirical dispersion correction    : off

 ************************* Pseudopotential Parameters **************************

 pseudopotential representation                 : reciprocal space
 <beta|phi> representation                      : reciprocal space
 spin-orbit coupling                            : off

 **************************** Basis Set Parameters *****************************

 plane wave basis set cut-off                   :   440.0000   eV
 size of standard grid                          :     1.5000
 size of   fine   grid                          :     1.5000
 size of   fine   gmax                          :    16.1197   1/A
 largest prime factor in FFT                    :          5
 finite basis set correction                    : none

 **************************** Electronic Parameters ****************************

 number of  electrons                           :  8.000
 net charge of system                           :  0.000
 treating system as non-spin-polarized
 number of bands                                :          4

 ********************* Electronic Minimization Parameters **********************

 Method: Treating system as non-metallic,
         and number of  SD  steps               :          1
         and number of  CG  steps               :          4

 total energy / atom convergence tol.           : 0.1000E-09   eV
 eigen-energy convergence tolerance             : 0.1000E-08   eV
 max force / atom convergence tol.              : ignored
 convergence tolerance window                   :          3   cycles
 max. number of SCF cycles                      :        100
 periodic dipole correction                     : NONE

 ************************** Density Mixing Parameters **************************

 density-mixing scheme                          : Pulay
 max. length of mixing history                  :         20
 charge density mixing amplitude                : 0.5000
 cut-off energy for mixing                      :  440.0       eV
 charge density mixing g-vector                 :  1.500       1/A

 ****************************** Phonon Parameters ******************************

 phonon calculation method                      : linear response
 phonon convergence tolerance                   : 0.1000E-04   eV/A**2
 max. number of phonon cycles                   :        100
 max. number of phonon CG steps                 :          0
 convergence tolerance window                   :          2   cycles
 DFPT solver method                             : AllBands (Gonze variational method)
 preconditioning scheme                         : TPA
 fine phonon calculation method                 : none
 LO/TO splitting term                           : included
 acoustic phonon sum rule                       : correct D(q) in recip-space
 Born effective charges                         : calculated
 Born charge sum rule                           : explicitly enforced
 Raman intensities                              : calculated
 Raman frequency window start                   :  0.000       eV
 Raman frequency window stop                    :  1.240       eV
 phonon k-points                                : use reduced set
 phonon DOS                                     : not calculated
 backups results every                          :        900   seconds

 ***************************** E-Field Parameters ******************************

 E-field convergence tolerance                  : 0.1000E-04   A**3
 DFPT solver method                             : AllBands (Gonze variational method)
 ionic contribution to permittivity             : included
 treating system as a crystal,
 => ignoring 3 lowest modes when calculating ionic  contribution to permittivity
 calculation with frequency spacing             : 0.4556E-05   cm-1
 Q-factor for lineshape broadening              :    50.0000
 max. number of E-field cycles                  :        500
 max. number of E-field CG steps                :          0
 convergence tolerance window                   :          2   cycles
 band convergence tolerance                     : 0.1000E-08   eV

                                      Unit Cell
        Real Lattice(A)                      Reciprocal Lattice(1/A)
   0.0000000   2.7958833   2.7958833       -1.1236494   1.1236494   1.1236494
   2.7958833   0.0000000   2.7958833        1.1236494  -1.1236494   1.1236494
   2.7958833   2.7958833  -0.0000000        1.1236494   1.1236494  -1.1236494

                       Lattice parameters(A)       Cell Angles
                    a =    3.953976          alpha =   60.000000
                    b =    3.953976          beta  =   60.000000
                    c =    3.953976          gamma =   60.000000

                       Current cell volume =   43.710637       A**3

                                     Cell Contents
                         Total number of ions in cell =    2
                      Total number of species in cell =    1
                        Max number of any one species =    2

            x  Element    Atom        Fractional coordinates of atoms  x
            x            Number           u          v          w      x
            x  Ge           1         0.000000   0.000000   0.000000   x
            x  Ge           2         0.250000   1.250000   0.250000   x

                         No user defined ionic velocities

                                   Details of Species

                               Mass of species in AMU
                                    Ge   72.5899963

                          Electric Quadrupole Moment (Barn)
                                    Ge   -0.1730000 Isotope 73

                          Files used for pseudopotentials:
                                    Ge Ge_00_OP.recpot

                              k-Points For BZ Sampling
                       MP grid size for SCF calculation is  3  3  3
                            with an offset of   0.000  0.000  0.000
                       Number of kpoints used =             4

                               Symmetry and Constraints

                      Maximum deviation from symmetry = 0.200000E-14     ANG

                      Number of symmetry operations   =          48
         There are no ionic constraints specified or generated for this cell
                      Point group of crystal =    32: Oh, m-3m, 4/m -3 2/m
                      Space group of crystal =   227: Fd-3m, F 4d 2 3 -1d

             Set iprint > 1 for details on symmetry rotations/translations

                         Centre of mass is NOT constrained

                         Number of cell constraints= 5
                         Cell constraints are:  1 1 1 0 0 0

                         External pressure/stress (GPa)
                          0.00000   0.00000   0.00000
                                    0.00000   0.00000
                                              0.00000

Final energy =  -214.6574838467     eV
(energy not corrected for finite basis set)

Writing analysis data to Ge_Efield.castep_bin

Writing model to Ge_Efield.check

 Efield perturbation    1:  X                                             0.78s
  Parallel strategy changed for perturbation using 6 k-points
  Data is distributed by G-vector(1-way) and k-point(2-way) and band(1-way)
  | Requirements will fluctuate during execution and may exceed these estimates |
 Perturbation    1 (of    1): Ge    1 X at q=( 0.000, 0.000, 0.000):      2.36s
  Parallel strategy changed for perturbation using 8 k-points
  Data is distributed by G-vector(1-way) and k-point(2-way) and band(1-way)
  | Requirements will fluctuate during execution and may exceed these estimates |

 Phonon calculation: q-point   1 (of    1) ( 0.000, 0.000, 0.000):        4.23s

 +                           Vibrational Frequencies                          +
 + Performing frequency calculation at  1 wavevector  (q-pt )                 +
 +                       Raman Intensity Progress Report                      +
 + RAMAN: Not a continuation; generating Raman intensities from beginning     +
 + Mode     1: not Raman active; calculation not required                     +
 + Mode     2: not Raman active; calculation not required                     +
 + Mode     3: not Raman active; calculation not required                     +
 + Mode     4: performing Raman intensity calculation                         +
 + Mode number:   4 completed;                   time taken:    17.16 seconds +
 + Mode     5: degenerate with previous; explicit calculation not required    +
 + Mode     6: degenerate with previous; explicit calculation not required    +
 +   E N D    O F    R A M A N    I N T E N S I T Y    C A L C U L A T I O N  +
 +         Raman intensity calculation completed in      17.16 seconds        +
 +  q-pt=    1 (  0.000000  0.000000  0.000000)     1.0000000000              +
 +  Acoustic sum rule correction <   2.471590 cm-1 applied                    +
 +     N      Frequency irrep.    ir intensity active  raman activity  active +
 +                (cm-1)         ((D/A)**2/amu)              (A**4/amu)       +
 +     1      -0.016599   a          0.0000000  N            0.0000000  N     +
 +     2      -0.016599   a          0.0000000  N            0.0000000  N     +
 +     3      -0.016599   a          0.0000000  N            0.0000000  N     +
 +     4     320.317124   b          0.0000000  N      4932974.7380349  Y     +
 +     5     320.317124   b          0.0000000  N      4932811.1485760  Y     +
 +     6     320.317124   b          0.0000000  N      4932845.6026533  Y     +
 +        Character table from group theory analysis of eigenvectors          +
 +                           Point Group =  32, Oh                            +
 +  Rep  Mul |    E   2   3  2'   4   I m_h  -3 m_v  -4                       +
 + a T1u   1 |    3  -1   0  -1   1  -3   1   0   1  -1                       +
 + b T2g   1 |    3  -1   0   1  -1   3  -1   0   1  -1                       +

 +                      Raman Susceptibility Tensors ((A/amu)*0.5)            +
 + Mode number:   1 Raman tensor       Depolarisation Ratio                   +
 +     0.0000    0.0000    0.0000      0.000000                               +
 +     0.0000    0.0000    0.0000                                             +
 +     0.0000    0.0000    0.0000                                             +
 + Mode number:   2 Raman tensor       Depolarisation Ratio                   +
 +     0.0000    0.0000    0.0000      0.000000                               +
 +     0.0000    0.0000    0.0000                                             +
 +     0.0000    0.0000    0.0000                                             +
 + Mode number:   3 Raman tensor       Depolarisation Ratio                   +
 +     0.0000    0.0000    0.0000      0.000000                               +
 +     0.0000    0.0000    0.0000                                             +
 +     0.0000    0.0000    0.0000                                             +
 + Mode number:   4 Raman tensor       Depolarisation Ratio                   +
 +    -0.0038  -72.3356   -1.4705      0.750000                               +
 +   -72.3356   -0.0039  -11.8092                                             +
 +    -1.4705  -11.8092   -0.0040                                             +
 + Mode number:   5 Raman tensor       Depolarisation Ratio                   +
 +     0.0029    0.0107   72.7399      0.750000                               +
 +     0.0107    0.0030   -9.0987                                             +
 +    72.7399   -9.0987    0.0028                                             +
 + Mode number:   6 Raman tensor       Depolarisation Ratio                   +
 +     0.0033  -11.8959    8.9831      0.750000                               +
 +   -11.8959    0.0030   71.7754                                             +
 +     8.9831   71.7754    0.0031                                             +

        Optical Permittivity (f->infinity)             DC Permittivity (f=0)
       100.94781     0.00000     0.00000       100.94781     0.00000     0.00000
         0.00000   100.94781     0.00000         0.00000   100.94781     0.00000
         0.00000     0.00000   100.94781         0.00000     0.00000   100.94781

                                    Polarisabilities (A**3)
                Optical (f->infinity)                       Static  (f=0)
       347.65666     0.00000     0.00000       347.65666     0.00000     0.00000
         0.00000   347.65666     0.00000         0.00000   347.65666     0.00000
         0.00000     0.00000   347.65666         0.00000     0.00000   347.65666
                   Born Effective Charges
   Ge      1         0.00000     0.00000     0.00000
                     0.00000     0.00000     0.00000
                     0.00000     0.00000     0.00000
   Ge      2         0.00000     0.00000     0.00000
                     0.00000     0.00000     0.00000
                     0.00000     0.00000     0.00000

 ***************** Symmetrised Forces *****************
 *            Cartesian components (eV/A)             *
 *                   x            y            z      *
 * Ge        1      0.00000      0.00000      0.00000 *
 * Ge        2      0.00000      0.00000      0.00000 *

Writing analysis data to Ge_Efield.castep_bin

Writing model to Ge_Efield.check

 A BibTeX formatted list of references used in this run has been written to
 Ge_Efield.bib

Initialisation time =      0.33 s
Calculation time    =     21.00 s
Finalisation time   =      0.06 s
Total time          =     21.39 s

Overall parallel efficiency rating: Excellent (93%)

Data was distributed by:-
k-point (2-way); efficiency rating: Excellent (96%)

Parallel notes:
1) Calculation only took 21.4 s, so efficiency estimates may be inaccurate.