 | Materials Studio CASTEP version 2017            |
 | Ab Initio Total Energy Program                  |
 | Authors:                                        |
 | M. Segall, M. Probert, C. Pickard, P. Hasnip,   |
 | S. Clark, K. Refson, J. R. Yates, M. Payne      |
 | Contributors:                                   |
 | P. Lindan, P. Haynes, J. White, V. Milman,      |
 | N. Govind, M. Gibson, P. Tulip, V. Cocula,      |
 | B. Montanari, D. Quigley, M. Glover,            |
 | L. Bernasconi, A. Perlov, M. Plummer,           |
 | E. McNellis, J. Meyer, J. Gale, D. Jochym       |
 | J. Aarons, B. Walker, R. Gillen, D. Jones       |
 | T. Green, I. J. Bush, C. J. Armstrong,          |
 | E. J. Higgins, E. L. Brown, M. S. McFly         |
 | Copyright (c) 2000 - 2016                       |
 | Please cite                                     |
 |     "First principles methods using CASTEP"     |
 |         Zeitschrift fuer Kristallographie       |
 |           220(5-6) pp. 567-570 (2005)           |
 | S. J. Clark, M. D. Segall, C. J. Pickard,       |
 | P. J. Hasnip, M. J. Probert, K. Refson,         |
 | M. C. Payne                                     |
 |       in all publications arising from          |
 |              your use of CASTEP                 |

 This version was compiled for x86_64-windows-msvc2008 on May 05 2016
 Intel(R) Math Kernel Library Version 11.1.2
 Fundamental constants values: CODATA 2010

 Warning in parameters_validate: current value of
   ELEC_EIGENVALUE_TOL = 0.100000E-08eV
   is too large to achieve desired level of convergence of response properties.
   This may cause convergence failures and/or inaccuracy of results
   of PHONON+EFIELD calculations - recommend you use a smaller value, e.g.
   ELEC_EIGENVALUE_TOL = 0.500000E-10eV
 |  D D D D    F F F F F  P P P P     T T T T T    |
 |  D       D  F          P       P       T        |
 |  D       D  F F F F    P P P P         T        |
 |  D       D  F          P               T        |
 |  D D D D    F          P               T        |
 | Welcome to Castep Linear Response (DFPT)        |
 | Copyright (c) 2006 - 2016                       |
 | Please cite the following publications in all   |
 | work arising from your use of CASTEP LR.        |
 | K. Refson, S. J. Clark and P. R. Tulip          |
 | Variational density functional perturbation     |
 | theory for dielectrics and lattice dynamics     |
 | Phys. Rev. B 73(15), 155114 (2006)              |

Reading continuation data from model file Si_Efield.check

 Pseudo atomic calculation performed for Si 3s2 3p2

 Converged in 16 iterations to a total energy of -101.6227 eV

Initialising basis set for model.
Reinitialising basis set for current geometry.
Continuing from previous run with ground state wavefunction.
Continuing from previous run with ground state density.
 Info: BACKUP_INTERVAL modified from          0 to        900
 Info: ELEC_ENERGY_TOL modified from    0.1000000000000000E-05 eV to    0.1000000000000000E-09 eV
 Info: ELEC_EIGENVALUE_TOL modified from    0.5000000000000000E-06 eV to    0.1000000000000000E-08 eV
 Info: BS_MAX_ITER modified from         60 to        200
 Info: PHONON_MAX_CYCLES modified from         50 to        100
 Info: CALCULATE_RAMAN modified from F to T
 Info: RAMAN_RANGE_HIGH modified from     1.000000000000000     eV to     1.239841929200420     eV
 Info: EFIELD_MAX_CYCLES modified from         50 to        500
 Info: SPECTRAL_WRITE_EIGENVALUES modified from T to F

 WARNING: Ground state wavefunctions and density data in check file marked as unconverged.
          because some parameters changed on continuation.

 Calculation not parallelised.

 ************************************ Title ************************************
 CASTEP calculation from Materials Studio

 ***************************** General Parameters ******************************

 output verbosity                               : normal  (1)
 continuing from                                : Si_Efield.check
 write checkpoint data to                       : Si_Efield.check
 type of calculation                            : Phonon followed by E-field
 stress calculation                             : on
 density difference calculation                 : off
 electron localisation func (ELF) calculation   : off
 Hirshfeld analysis                             : off
 unlimited duration calculation
 timing information                             : on
 write final potential to formatted file        : off
 write final density to formatted file          : off
 write BibTeX reference list                    : on
 write OTFG pseudopotential files               : on
 checkpoint writing                             : both castep_bin and check files

 output         length unit                     : A
 output           mass unit                     : amu
 output           time unit                     : ps
 output         charge unit                     : e
 output           spin unit                     : hbar/2
 output         energy unit                     : eV
 output          force unit                     : eV/A
 output       velocity unit                     : A/ps
 output       pressure unit                     : GPa
 output     inv_length unit                     : 1/A
 output      frequency unit                     : cm-1
 output force constant unit                     : eV/A**2
 output         volume unit                     : A**3
 output   IR intensity unit                     : (D/A)**2/amu
 output         dipole unit                     : D
 output         efield unit                     : eV/A/e
 output        entropy unit                     : J/mol/K

 wavefunctions paging                           : none
 random number generator seed                   :  182813751
 data distribution                              : optimal for this architecture

 *********************** Exchange-Correlation Parameters ***********************

 using functional                               : Perdew Burke Ernzerhof
 relativistic treatment                         : Koelling-Harmon
 DFT+D: Semi-empirical dispersion correction    : off

 ************************* Pseudopotential Parameters **************************

 pseudopotential representation                 : reciprocal space
 <beta|phi> representation                      : reciprocal space
 spin-orbit coupling                            : off

 **************************** Basis Set Parameters *****************************

 plane wave basis set cut-off                   :   350.0000   eV
 size of standard grid                          :     1.7500
 size of   fine   grid                          :     2.1000
 size of   fine   gmax                          :    20.1276   1/A
 largest prime factor in FFT                    :          5
 finite basis set correction                    : automatic
 number of sample energies                      :          3
           sample  spacing                      :     5.0000   eV

 **************************** Electronic Parameters ****************************

 number of  electrons                           :  8.000
 net charge of system                           :  0.000
 treating system as non-spin-polarized
 number of bands                                :          4

 ********************* Electronic Minimization Parameters **********************

 Method: Treating system as non-metallic,
         and number of  SD  steps               :          1
         and number of  CG  steps               :          4

 total energy / atom convergence tol.           : 0.1000E-09   eV
 eigen-energy convergence tolerance             : 0.1000E-08   eV
 max force / atom convergence tol.              : ignored
 convergence tolerance window                   :          3   cycles
 max. number of SCF cycles                      :        100
 periodic dipole correction                     : NONE

 ************************** Density Mixing Parameters **************************

 density-mixing scheme                          : Pulay
 max. length of mixing history                  :         20
 charge density mixing amplitude                : 0.5000
 cut-off energy for mixing                      :  350.0       eV
 charge density mixing g-vector                 :  1.500       1/A

 ****************************** Phonon Parameters ******************************

 phonon calculation method                      : linear response
 phonon convergence tolerance                   : 0.1000E-04   eV/A**2
 max. number of phonon cycles                   :        100
 max. number of phonon CG steps                 :          0
 convergence tolerance window                   :          2   cycles
 DFPT solver method                             : AllBands (Gonze variational method)
 preconditioning scheme                         : TPA
 fine phonon calculation method                 : none
 LO/TO splitting term                           : included
 acoustic phonon sum rule                       : correct D(q) in recip-space
 Born effective charges                         : calculated
 Born charge sum rule                           : explicitly enforced
 Raman intensities                              : calculated
 Raman frequency window start                   :  0.000       eV
 Raman frequency window stop                    :  1.240       eV
 phonon k-points                                : use reduced set
 phonon DOS                                     : not calculated
 backups results every                          :        900   seconds

 ***************************** E-Field Parameters ******************************

 E-field convergence tolerance                  : 0.1000E-04   A**3
 DFPT solver method                             : AllBands (Gonze variational method)
 ionic contribution to permittivity             : included
 treating system as a crystal,
 => ignoring 3 lowest modes when calculating ionic  contribution to permittivity
 calculation with frequency spacing             : 0.4556E-05   cm-1
 Q-factor for lineshape broadening              :    50.0000
 max. number of E-field cycles                  :        500
 max. number of E-field CG steps                :          0
 convergence tolerance window                   :          2   cycles
 band convergence tolerance                     : 0.1000E-08   eV

                                      Unit Cell
        Real Lattice(A)                      Reciprocal Lattice(1/A)
  -0.0000000   2.7409170   2.7409170       -1.1461831   1.1461831   1.1461831
   2.7409170   0.0000000   2.7409170        1.1461831  -1.1461831   1.1461831
   2.7409170   2.7409170  -0.0000000        1.1461831   1.1461831  -1.1461831

                       Lattice parameters(A)       Cell Angles
                    a =    3.876242          alpha =   60.000000
                    b =    3.876242          beta  =   60.000000
                    c =    3.876242          gamma =   60.000000

                       Current cell volume =   41.182969       A**3

                                     Cell Contents
                         Total number of ions in cell =    2
                      Total number of species in cell =    1
                        Max number of any one species =    2

            x  Element    Atom        Fractional coordinates of atoms  x
            x            Number           u          v          w      x
            x  Si           1         0.000000   0.000000   0.000000   x
            x  Si           2         0.250000   1.250000   0.250000   x

                         No user defined ionic velocities

                                   Details of Species

                               Mass of species in AMU
                                    Si   28.0849991

                          Electric Quadrupole Moment (Barn)
                                    Si    1.0000000 No Isotope Defined

                          Files used for pseudopotentials:
                                    Si Si_00PBE_OP.recpot

                              k-Points For BZ Sampling
                       MP grid size for SCF calculation is  5  5  5
                            with an offset of   0.000  0.000  0.000
                       Number of kpoints used =            10

                               Symmetry and Constraints

                      Maximum deviation from symmetry = 0.120570E-14     ANG

                      Number of symmetry operations   =          48
         There are no ionic constraints specified or generated for this cell
                      Point group of crystal =    32: Oh, m-3m, 4/m -3 2/m
                      Space group of crystal =   227: Fd-3m, F 4d 2 3 -1d

             Set iprint > 1 for details on symmetry rotations/translations

                         Centre of mass is NOT constrained

                         Number of cell constraints= 5
                         Cell constraints are:  1 1 1 0 0 0

                         External pressure/stress (GPa)
                          0.00000   0.00000   0.00000
                                    0.00000   0.00000
                                              0.00000

Final energy =  -214.0235938551     eV
(energy not corrected for finite basis set)

 Total energy corrected for finite basis set =    -214.023360 eV

Writing analysis data to Si_Efield.castep_bin

Writing model to Si_Efield.check

 Phonon calculation: q-point   1 (of    1) ( 0.000, 0.000, 0.000):       17.00s

 +                           Vibrational Frequencies                          +
 + Performing frequency calculation at  1 wavevector  (q-pt )                 +
 +                       Raman Intensity Progress Report                      +
 + RAMAN: Not a continuation; generating Raman intensities from beginning     +
 + Mode     1: not Raman active; calculation not required                     +
 + Mode     2: not Raman active; calculation not required                     +
 + Mode     3: not Raman active; calculation not required                     +
 + Mode     4: performing Raman intensity calculation                         +
 + Mode number:   4 completed;                   time taken:    78.72 seconds +
 + Mode     5: degenerate with previous; explicit calculation not required    +
 + Mode     6: degenerate with previous; explicit calculation not required    +
 +   E N D    O F    R A M A N    I N T E N S I T Y    C A L C U L A T I O N  +
 +         Raman intensity calculation completed in      78.73 seconds        +
 +  q-pt=    1 (  0.000000  0.000000  0.000000)     1.0000000000              +
 +  Acoustic sum rule correction <   9.009867 cm-1 applied                    +
 +     N      Frequency irrep.    ir intensity active  raman activity  active +
 +                (cm-1)         ((D/A)**2/amu)              (A**4/amu)       +
 +     1      -0.026686   a          0.0000000  N            0.0000000  N     +
 +     2      -0.026686   a          0.0000000  N            0.0000000  N     +
 +     3      -0.026686   a          0.0000000  N            0.0000000  N     +
 +     4     504.588714   b          0.0000000  N         4864.7146492  Y     +
 +     5     504.588714   b          0.0000000  N         4862.9356620  Y     +
 +     6     504.588714   b          0.0000000  N         4863.7257864  Y     +
 +        Character table from group theory analysis of eigenvectors          +
 +                           Point Group =  32, Oh                            +
 +  Rep  Mul |    E   2   3  2'   4   I m_h  -3 m_v  -4                       +
 + a T1u   1 |    3  -1   0  -1   1  -3   1   0   1  -1                       +
 + b T2g   1 |    3  -1   0   1  -1   3  -1   0   1  -1                       +

 +                      Raman Susceptibility Tensors ((A/amu)*0.5)            +
 + Mode number:   1 Raman tensor       Depolarisation Ratio                   +
 +     0.0000    0.0000    0.0000      0.000000                               +
 +     0.0000    0.0000    0.0000                                             +
 +     0.0000    0.0000    0.0000                                             +
 + Mode number:   2 Raman tensor       Depolarisation Ratio                   +
 +     0.0000    0.0000    0.0000      0.000000                               +
 +     0.0000    0.0000    0.0000                                             +
 +     0.0000    0.0000    0.0000                                             +
 + Mode number:   3 Raman tensor       Depolarisation Ratio                   +
 +     0.0000    0.0000    0.0000      0.000000                               +
 +     0.0000    0.0000    0.0000                                             +
 +     0.0000    0.0000    0.0000                                             +
 + Mode number:   4 Raman tensor       Depolarisation Ratio                   +
 +     0.0000   -2.2830    0.6425      0.750000                               +
 +    -2.2830    0.0000   -0.0119                                             +
 +     0.6425   -0.0119    0.0000                                             +
 + Mode number:   5 Raman tensor       Depolarisation Ratio                   +
 +     0.0000   -0.6418   -2.2824      0.750000                               +
 +    -0.6418    0.0000    0.0429                                             +
 +    -2.2824    0.0429    0.0000                                             +
 + Mode number:   6 Raman tensor       Depolarisation Ratio                   +
 +     0.0000    0.0007   -0.0436      0.750000                               +
 +     0.0007    0.0000   -2.3711                                             +
 +    -0.0436   -2.3711    0.0000                                             +

        Optical Permittivity (f->infinity)             DC Permittivity (f=0)
        18.59158     0.00000     0.00000        18.59158     0.00000     0.00000
         0.00000    18.59158     0.00000         0.00000    18.59158     0.00000
         0.00000     0.00000    18.59158         0.00000     0.00000    18.59158

                                    Polarisabilities (A**3)
                Optical (f->infinity)                       Static  (f=0)
        57.65175     0.00000     0.00000        57.65175     0.00000     0.00000
         0.00000    57.65175     0.00000         0.00000    57.65175     0.00000
         0.00000     0.00000    57.65175         0.00000     0.00000    57.65175
                   Born Effective Charges
   Si      1         0.00000     0.00000     0.00000
                     0.00000     0.00000     0.00000
                     0.00000     0.00000     0.00000
   Si      2         0.00000     0.00000     0.00000
                     0.00000     0.00000     0.00000
                     0.00000     0.00000     0.00000

 ***************** Symmetrised Forces *****************
 *            Cartesian components (eV/A)             *
 *                   x            y            z      *
 * Si        1      0.00000      0.00000      0.00000 *
 * Si        2      0.00000      0.00000      0.00000 *

 *********** Symmetrised Stress Tensor ***********
 *          Cartesian components (GPa)           *
 *             x             y             z     *
 *  x      0.001942      0.000000     -0.000000  *
 *  y      0.000000      0.001942      0.000000  *
 *  z     -0.000000      0.000000      0.001942  *
 *  Pressure:   -0.0019                          *

Writing analysis data to Si_Efield.castep_bin

Writing model to Si_Efield.check

 A BibTeX formatted list of references used in this run has been written to
 Si_Efield.bib

Initialisation time =      0.28 s
Calculation time    =     95.42 s
Finalisation time   =      0.06 s
Total time          =     95.77 s