 | Materials Studio CASTEP version 2017            |
 | Ab Initio Total Energy Program                  |
 | Authors:                                        |
 | M. Segall, M. Probert, C. Pickard, P. Hasnip,   |
 | S. Clark, K. Refson, J. R. Yates, M. Payne      |
 | Contributors:                                   |
 | P. Lindan, P. Haynes, J. White, V. Milman,      |
 | N. Govind, M. Gibson, P. Tulip, V. Cocula,      |
 | B. Montanari, D. Quigley, M. Glover,            |
 | L. Bernasconi, A. Perlov, M. Plummer,           |
 | E. McNellis, J. Meyer, J. Gale, D. Jochym       |
 | J. Aarons, B. Walker, R. Gillen, D. Jones       |
 | T. Green, I. J. Bush, C. J. Armstrong,          |
 | E. J. Higgins, E. L. Brown, M. S. McFly         |
 | Copyright (c) 2000 - 2016                       |
 | Please cite                                     |
 |     "First principles methods using CASTEP"     |
 |         Zeitschrift fuer Kristallographie       |
 |           220(5-6) pp. 567-570 (2005)           |
 | S. J. Clark, M. D. Segall, C. J. Pickard,       |
 | P. J. Hasnip, M. J. Probert, K. Refson,         |
 | M. C. Payne                                     |
 |       in all publications arising from          |
 |              your use of CASTEP                 |

 This version was compiled for x86_64-windows-msvc2008 on May 05 2016
 Intel(R) Math Kernel Library Version 11.1.2
 Fundamental constants values: CODATA 2010

 Atomic calculation performed for Ni: 1s2 2s2 2p6 3s2 3p6 3d8 4s2

 Converged in 91 iterations to an ae energy of -41375.898 eV

 Identity difference: 8.24E-04

   | Pseudopotential Report - Date of generation 31-08-2019   |
   | Element: Ni Ionic charge: 10.00 Level of theory: PBE     |
   | Atomic Solver: Koelling-Harmon                           |
   |               Reference Electronic Structure             |
   |         Orbital         Occupation         Energy        |
   |            3d              8.000           -0.326        |
   |            4s              2.000           -0.207        |
   |                 Pseudopotential Definition               |
   |        Beta     l      e      Rc     scheme   norm       |
   |          1      0   -0.207   1.999     qc      0         |
   |          2      0    0.250   1.999     qc      0         |
   |          3      1    0.000   1.999     qc      0         |
   |          4      1    0.250   1.999     qc      0         |
   |          5      2   -0.326   1.999     qc      0         |
   |          6      2    0.250   1.999     qc      0         |
   |         loc     3    0.000   2.191     pn      0         |
   | Augmentation charge Rinner = 1.001                       |
   | Partial core correction Rc = 1.001                       |
   | "3|2.2|2|1|10|12.1|14.7|40UU:41UU:32UU(qc=6)[]"          |
   |      Author: Chris J. Pickard, Cambridge University      |

 Doing a self consistent calculation for the test configuration

 Atomic calculation performed for Ni: 1s2 2s2 2p6 3s2 3p6 3d8 4s2

 Converged in 91 iterations to an ae energy of -41375.898 eV

 AE eigenvalue nl 10 =     -301.79263876
 AE eigenvalue nl 20 =      -36.08162216
 AE eigenvalue nl 21 =      -31.04152791
 AE eigenvalue nl 30 =       -4.08135009
 AE eigenvalue nl 31 =       -2.62346104
 AE eigenvalue nl 32 =       -0.32611860
 AE eigenvalue nl 40 =       -0.20737752
 PS eigenvalue nl 32 =       -0.32597884
 PS eigenvalue nl 40 =       -0.20738932
 Maximum eigenvalue error:   1.40E-04

 Derived cutoff energies: C=   8 M=  12 F=  12 E=  16

 Pseudo atomic calculation performed for Ni 3d8 4s2

 Converged in 40 iterations to a total energy of -1355.1527 eV

 Calculation not parallelised.

 ************************************ Title ************************************
 CASTEP calculation from Materials Studio

 ***************************** General Parameters ******************************

 output verbosity                               : normal  (1)
 write checkpoint data to                       : Ni.check
 type of calculation                            : geometry optimization
 stress calculation                             : on
 density difference calculation                 : off
 electron localisation func (ELF) calculation   : off
 Hirshfeld analysis                             : off
 unlimited duration calculation
 timing information                             : on
 write final potential to formatted file        : off
 write final density to formatted file          : off
 write BibTeX reference list                    : on
 write OTFG pseudopotential files               : on
 checkpoint writing                             : both castep_bin and check files

 output         length unit                     : A
 output           mass unit                     : amu
 output           time unit                     : ps
 output         charge unit                     : e
 output           spin unit                     : hbar/2
 output         energy unit                     : eV
 output          force unit                     : eV/A
 output       velocity unit                     : A/ps
 output       pressure unit                     : GPa
 output     inv_length unit                     : 1/A
 output      frequency unit                     : cm-1
 output force constant unit                     : eV/A**2
 output         volume unit                     : A**3
 output   IR intensity unit                     : (D/A)**2/amu
 output         dipole unit                     : D
 output         efield unit                     : eV/A/e
 output        entropy unit                     : J/mol/K

 wavefunctions paging                           : none
 random number generator seed                   : randomised (161659422)
 data distribution                              : optimal for this architecture
 optimization strategy                          : maximize speed(+++)

 *********************** Exchange-Correlation Parameters ***********************

 using functional                               : Perdew Burke Ernzerhof
 relativistic treatment                         : Koelling-Harmon
 DFT+D: Semi-empirical dispersion correction    : off

 ************************* Pseudopotential Parameters **************************

 pseudopotential representation                 : reciprocal space
 <beta|phi> representation                      : reciprocal space
 spin-orbit coupling                            : off

 **************************** Basis Set Parameters *****************************

 plane wave basis set cut-off                   :   400.0000   eV
 size of standard grid                          :     1.7500
 size of   fine   grid                          :     2.1000
 size of   fine   gmax                          :    21.5173   1/A
 largest prime factor in FFT                    :          5
 finite basis set correction                    : automatic
 number of sample energies                      :          3
           sample  spacing                      :     5.0000   eV

 **************************** Electronic Parameters ****************************

 number of  electrons                           :  10.00
 net charge of system                           :  0.000
 net spin   of system                           :  2.000
 number of  up  spins                           :  6.000
 number of down spins                           :  4.000
 treating system as spin-polarized
 number of bands                                :         10

 ********************* Electronic Minimization Parameters **********************

 Method: Treating system as metallic with density mixing treatment of electrons,
         and number of  SD  steps               :          1
         and number of  CG  steps               :          4

 total energy / atom convergence tol.           : 0.1000E-05   eV
 eigen-energy convergence tolerance             : 0.1000E-06   eV
 max force / atom convergence tol.              : ignored
 convergence tolerance window                   :          3   cycles
 max. number of SCF cycles                      :        100
 number of fixed-spin iterations                :          6
 smearing scheme                                : Gaussian
 smearing width                                 : 0.1000       eV
 Fermi energy convergence tolerance             : 0.2721E-13   eV
 periodic dipole correction                     : NONE

 ************************** Density Mixing Parameters **************************

 density-mixing scheme                          : Pulay
 max. length of mixing history                  :         20
 charge density mixing amplitude                : 0.5000
   spin density mixing amplitude                :  2.000
 cut-off energy for mixing                      :  400.0       eV
 charge density mixing g-vector                 :  1.500       1/A
   spin density mixing g-vector                 :  1.500       1/A

 ********************** Geometry Optimization Parameters ***********************

 optimization method                            : BFGS
 variable cell method                           : fixed basis quality
 max. number of steps                           :        100
 estimated bulk modulus                         :  500.0       GPa
 estimated <frequency>                          :  1668.       cm-1
 geom line minimiser                            : on
 with line minimiser tolerance                  :     0.4000
  with spin fully able to relax for all steps
 total energy convergence tolerance             : 0.1000E-04   eV/atom
        max ionic |force| tolerance             : 0.3000E-01   eV/A
 max ionic |displacement| tolerance             : 0.1000E-02   A
   max |stress component| tolerance             : 0.5000E-01   GPa
 convergence tolerance window                   :          2   steps
 backup results every                           :          5   steps

                                      Unit Cell
        Real Lattice(A)                      Reciprocal Lattice(1/A)
   0.0000000   1.7620000   1.7620000       -1.7829697   1.7829697   1.7829697
   1.7620000  -0.0000000   1.7620000        1.7829697  -1.7829697   1.7829697
   1.7620000   1.7620000   0.0000000        1.7829697   1.7829697  -1.7829697

                       Lattice parameters(A)       Cell Angles
                    a =    2.491844          alpha =   60.000000
                    b =    2.491844          beta  =   60.000000
                    c =    2.491844          gamma =   60.000000

                       Current cell volume =   10.940765       A**3

                                     Cell Contents
                         Total number of ions in cell =    1
                      Total number of species in cell =    1
                        Max number of any one species =    1

            x  Element    Atom        Fractional coordinates of atoms  x
            x            Number           u          v          w      x
            x  Ni           1         0.000000   0.000000   0.000000   x

                         No user defined ionic velocities

                                   Details of Species

                               Mass of species in AMU
                                    Ni   58.7099991

                          Electric Quadrupole Moment (Barn)
                                    Ni    0.1620000 Isotope 61

                          Files used for pseudopotentials:
                                    Ni 3|2.2|2|1|10|12.1|14.7|40UU:41UU:32UU(qc=6)[]

                              k-Points For BZ Sampling
                       MP grid size for SCF calculation is 12 12 12
                            with an offset of   0.000  0.000  0.000
                       Number of kpoints used =           182

                               Symmetry and Constraints

                      Maximum deviation from symmetry = 0.200000E-14     ANG

                      Number of symmetry operations   =          48
         There are no ionic constraints specified or generated for this cell
                      Point group of crystal =    32: Oh, m-3m, 4/m -3 2/m
                      Space group of crystal =   225: Fm-3m, -F 4 2 3

             Set iprint > 1 for details on symmetry rotations/translations

                         Centre of mass is NOT constrained

                         Number of cell constraints= 5
                         Cell constraints are:  1 1 1 0 0 0

                         External pressure/stress (GPa)
                          0.00000   0.00000   0.00000
                                    0.00000   0.00000
                                              0.00000

Integrated Spin Density     =    0.656387     hbar/2
Integrated |Spin Density|   =    0.749237     hbar/2

Final energy, E             =  -1362.506907722     eV
Final free energy (E-TS)    =  -1362.515258562     eV
(energies not corrected for finite basis set)

NB est. 0K energy (E-0.5TS)      =  -1362.511083142     eV

Calculating total energy with cut-off of  395.000eV.
------------------------------------------------------------------------ <-- SCF
SCF loop      Energy           Fermi           Energy gain       Timer   <-- SCF
                               energy          per atom          (sec)   <-- SCF
------------------------------------------------------------------------ <-- SCF
Initial  -1.36250708E+003  0.00000000E+000                        58.33  <-- SCF
      1  -1.36252248E+003  5.51214183E+000   1.53957716E-002      61.11  <-- SCF
      2  -1.36252248E+003  5.51214178E+000   6.83191969E-007      63.34  <-- SCF
      3  -1.36252248E+003  5.51669111E+000   5.07584838E-006      65.67  <-- SCF
      4  -1.36252248E+003  5.50653702E+000   4.32826710E-007      68.61  <-- SCF
      5  -1.36252248E+003  5.51407201E+000  -3.26918144E-006      71.44  <-- SCF
      6  -1.36252248E+003  5.51416690E+000  -1.85440198E-006      73.33  <-- SCF
      7  -1.36252248E+003  5.51385585E+000   1.25342277E-006      75.16  <-- SCF
      8  -1.36252248E+003  5.51398585E+000   2.92750734E-007      77.06  <-- SCF
      9  -1.36252248E+003  5.51397005E+000  -2.43431974E-007      78.92  <-- SCF
------------------------------------------------------------------------ <-- SCF

[...]

Calculating total energy with cut-off of  400.000eV.
------------------------------------------------------------------------ <-- SCF
SCF loop      Energy           Fermi           Energy gain       Timer   <-- SCF
                               energy          per atom          (sec)   <-- SCF
------------------------------------------------------------------------ <-- SCF
Initial  -1.36251431E+003  0.00000000E+000                        79.28  <-- SCF
      1  -1.36252877E+003  5.51349522E+000   1.44636563E-002      82.06  <-- SCF
      2  -1.36252877E+003  5.51349520E+000   4.43612657E-007      84.22  <-- SCF
      3  -1.36252878E+003  5.51744839E+000   4.59885623E-006      86.72  <-- SCF
      4  -1.36252878E+003  5.50852522E+000  -8.37323415E-007      89.91  <-- SCF
      5  -1.36252878E+003  5.51513655E+000  -1.45815797E-006      92.78  <-- SCF
      6  -1.36252877E+003  5.51521520E+000  -1.67184018E-006      94.94  <-- SCF
      7  -1.36252878E+003  5.51494654E+000   1.09404288E-006      97.02  <-- SCF
      8  -1.36252878E+003  5.51506067E+000   2.56548351E-007      99.00  <-- SCF
      9  -1.36252878E+003  5.51504613E+000  -2.10833027E-007     101.11  <-- SCF
------------------------------------------------------------------------ <-- SCF

Integrated Spin Density     =    0.656803     hbar/2
Integrated |Spin Density|   =    0.749710     hbar/2

Final energy, E             =  -1362.520432585     eV
Final free energy (E-TS)    =  -1362.528775589     eV
(energies not corrected for finite basis set)

NB est. 0K energy (E-0.5TS)      =  -1362.524604087     eV

 For future reference: finite basis dEtot/dlog(Ecut) =      -0.533732eV
 Total energy corrected for finite basis set =   -1362.528716 eV

 ***************** Stress Tensor *****************
 *          Cartesian components (GPa)           *
 *             x             y             z     *
 *  x     -0.009621     -0.000000      0.000000  *
 *  y     -0.000000     -0.009621      0.000000  *
 *  z      0.000000      0.000000     -0.009621  *
 *  Pressure:    0.0096                          *
 BFGS: finished iteration     0 with enthalpy= -1.36252872E+003 eV

 +-----------+-----------------+-----------------+------------+-----+ <-- BFGS
 | Parameter |      value      |    tolerance    |    units   | OK? | <-- BFGS
 +-----------+-----------------+-----------------+------------+-----+ <-- BFGS
 |  dE/ion   |   0.000000E+000 |   1.000000E-005 |         eV | Yes | <-- BFGS
 |   Smax    |   9.621459E-003 |   5.000000E-002 |        GPa | Yes | <-- BFGS
 +-----------+-----------------+-----------------+------------+-----+ <-- BFGS

 BFGS: Geometry optimization completed successfully.

 BFGS: Final Configuration:

                                      Unit Cell
        Real Lattice(A)              Reciprocal Lattice(1/A)
   0.0000000   1.7620000   1.7620000       -1.7829697   1.7829697   1.7829697
   1.7620000  -0.0000000   1.7620000        1.7829697  -1.7829697   1.7829697
   1.7620000   1.7620000   0.0000000        1.7829697   1.7829697  -1.7829697

                       Lattice parameters(A)       Cell Angles
                    a =    2.491844          alpha =   60.000000
                    b =    2.491844          beta  =   60.000000
                    c =    2.491844          gamma =   60.000000

                Current cell volume =   10.940765 A**3

 BFGS: Final Enthalpy     = -1.36252872E+003 eV
 BFGS: Final bulk modulus unchanged from initial value

 ***************************** Symmetrised Forces *****************************
 *                        Cartesian components (eV/A)                         *
 *                   x                    y                    z              *
 * Ni        1      0.00000              0.00000              0.00000         *

 *********** Symmetrised Stress Tensor ***********
 *          Cartesian components (GPa)           *
 *             x             y             z     *
 *  x     -0.009621     -0.000000      0.000000  *
 *  y     -0.000000     -0.009621      0.000000  *
 *  z      0.000000      0.000000     -0.009621  *
 *  Pressure:    0.0096                          *

Writing analysis data to Ni.castep_bin

Writing model to Ni.check

 A BibTeX formatted list of references used in this run has been written to
 Ni.bib

Initialisation time =      8.44 s
Calculation time    =     93.36 s
Finalisation time   =      0.22 s
Total time          =    102.02 s