 | Materials Studio CASTEP version 2017            |
 | Ab Initio Total Energy Program                  |
 | Authors:                                        |
 | M. Segall, M. Probert, C. Pickard, P. Hasnip,   |
 | S. Clark, K. Refson, J. R. Yates, M. Payne      |
 | Contributors:                                   |
 | P. Lindan, P. Haynes, J. White, V. Milman,      |
 | N. Govind, M. Gibson, P. Tulip, V. Cocula,      |
 | B. Montanari, D. Quigley, M. Glover,            |
 | L. Bernasconi, A. Perlov, M. Plummer,           |
 | E. McNellis, J. Meyer, J. Gale, D. Jochym       |
 | J. Aarons, B. Walker, R. Gillen, D. Jones       |
 | T. Green, I. J. Bush, C. J. Armstrong,          |
 | E. J. Higgins, E. L. Brown, M. S. McFly         |
 | Copyright (c) 2000 - 2016                       |
 | Please cite                                     |
 |     "First principles methods using CASTEP"     |
 |         Zeitschrift fuer Kristallographie       |
 |           220(5-6) pp. 567-570 (2005)           |
 | S. J. Clark, M. D. Segall, C. J. Pickard,       |
 | P. J. Hasnip, M. J. Probert, K. Refson,         |
 | M. C. Payne                                     |
 |       in all publications arising from          |
 |              your use of CASTEP                 |

 This version was compiled for x86_64-windows-msvc2008 on May 05 2016
 Intel(R) Math Kernel Library Version 11.1.2
 Fundamental constants values: CODATA 2010

 Pseudo atomic calculation performed for Ge 4s2 4p2

 Converged in 16 iterations to a total energy of -102.3132 eV

 Calculation parallelised over 2 processes.
 Data is distributed by k-point(2-way)

 ************************************ Title ************************************
 CASTEP calculation from Materials Studio

 ***************************** General Parameters ******************************

 output verbosity                               : normal  (1)
 write checkpoint data to                       : Ge.check
 type of calculation                            : geometry optimization
 stress calculation                             : on
 density difference calculation                 : off
 electron localisation func (ELF) calculation   : off
 Hirshfeld analysis                             : off
 unlimited duration calculation
 timing information                             : on
 write final potential to formatted file        : off
 write final density to formatted file          : off
 write BibTeX reference list                    : on
 write OTFG pseudopotential files               : on
 checkpoint writing                             : both castep_bin and check files

 output         length unit                     : A
 output           mass unit                     : amu
 output           time unit                     : ps
 output         charge unit                     : e
 output           spin unit                     : hbar/2
 output         energy unit                     : eV
 output          force unit                     : eV/A
 output       velocity unit                     : A/ps
 output       pressure unit                     : GPa
 output     inv_length unit                     : 1/A
 output      frequency unit                     : cm-1
 output force constant unit                     : eV/A**2
 output         volume unit                     : A**3
 output   IR intensity unit                     : (D/A)**2/amu
 output         dipole unit                     : D
 output         efield unit                     : eV/A/e
 output        entropy unit                     : J/mol/K

 wavefunctions paging                           : none
 random number generator seed                   : randomised (151459760)
 data distribution                              : optimal for this architecture

 *********************** Exchange-Correlation Parameters ***********************

 using functional                               : Local Density Approximation
 relativistic treatment                         : Koelling-Harmon
 DFT+D: Semi-empirical dispersion correction    : off

 ************************* Pseudopotential Parameters **************************

 pseudopotential representation                 : reciprocal space
 <beta|phi> representation                      : reciprocal space
 spin-orbit coupling                            : off

 **************************** Basis Set Parameters *****************************

 plane wave basis set cut-off                   :   440.0000   eV
 size of standard grid                          :     1.5000
 size of   fine   gmax                          :    16.1197   1/A
 largest prime factor in FFT                    :          5
 finite basis set correction                    : automatic
 number of sample energies                      :          3
           sample  spacing                      :     5.0000   eV

 **************************** Electronic Parameters ****************************

 number of  electrons                           :  8.000
 net charge of system                           :  0.000
 treating system as non-spin-polarized
 number of bands                                :          4

 ********************* Electronic Minimization Parameters **********************

 Method: Treating system as non-metallic,
         and number of  SD  steps               :          1
         and number of  CG  steps               :          4

 total energy / atom convergence tol.           : 0.2000E-05   eV
 eigen-energy convergence tolerance             : 0.1000E-05   eV
 max force / atom convergence tol.              : ignored
 convergence tolerance window                   :          3   cycles
 max. number of SCF cycles                      :        100
 periodic dipole correction                     : NONE

 ************************** Density Mixing Parameters **************************

 density-mixing scheme                          : Pulay
 max. length of mixing history                  :         20
 charge density mixing amplitude                : 0.5000
 cut-off energy for mixing                      :  440.0       eV
 charge density mixing g-vector                 :  1.500       1/A

 ********************** Geometry Optimization Parameters ***********************

 optimization method                            : BFGS
 variable cell method                           : fixed basis quality
 max. number of steps                           :        100
 estimated bulk modulus                         :  500.0       GPa
 estimated <frequency>                          :  1668.       cm-1
 geom line minimiser                            : on
 with line minimiser tolerance                  :     0.4000
 total energy convergence tolerance             : 0.2000E-04   eV/atom
        max ionic |force| tolerance             : 0.5000E-01   eV/A
 max ionic |displacement| tolerance             : 0.2000E-02   A
   max |stress component| tolerance             : 0.1000       GPa
 convergence tolerance window                   :          2   steps
 backup results every                           :          5   steps

                                      Unit Cell
        Real Lattice(A)                      Reciprocal Lattice(1/A)
   0.0000000   2.8287500   2.8287500       -1.1105940   1.1105940   1.1105940
   2.8287500   0.0000000   2.8287500        1.1105940  -1.1105940   1.1105940
   2.8287500   2.8287500   0.0000000        1.1105940   1.1105940  -1.1105940

                       Lattice parameters(A)       Cell Angles
                    a =    4.000457          alpha =   60.000000
                    b =    4.000457          beta  =   60.000000
                    c =    4.000457          gamma =   60.000000

                       Current cell volume =   45.270334       A**3

                                     Cell Contents
                         Total number of ions in cell =    2
                      Total number of species in cell =    1
                        Max number of any one species =    2

            x  Element    Atom        Fractional coordinates of atoms  x
            x            Number           u          v          w      x
            x  Ge           1         0.000000   0.000000   0.000000   x
            x  Ge           2         0.250000   1.250000   0.250000   x

                         No user defined ionic velocities

                                   Details of Species

                               Mass of species in AMU
                                    Ge   72.5899963

                          Electric Quadrupole Moment (Barn)
                                    Ge   -0.1730000 Isotope 73

                          Files used for pseudopotentials:
                                    Ge Ge_00_OP.recpot

                              k-Points For BZ Sampling
                       MP grid size for SCF calculation is  4  4  4
                            with an offset of   0.000  0.000  0.000
                       Number of kpoints used =            10

                               Symmetry and Constraints

                      Maximum deviation from symmetry = 0.628109E-15     ANG

                      Number of symmetry operations   =          48
         There are no ionic constraints specified or generated for this cell
                      Point group of crystal =    32: Oh, m-3m, 4/m -3 2/m
                      Space group of crystal =   227: Fd-3m, F 4d 2 3 -1d

             Set iprint > 1 for details on symmetry rotations/translations

                         Centre of mass is NOT constrained

                         Number of cell constraints= 5
                         Cell constraints are:  1 1 1 0 0 0

                         External pressure/stress (GPa)
                          0.00000   0.00000   0.00000
                                    0.00000   0.00000
                                              0.00000

Final energy =  -215.3738953586     eV
(energy not corrected for finite basis set)

Calculating total energy with cut-off of  435.000eV.
------------------------------------------------------------------------ <-- SCF
SCF loop      Energy                           Energy gain       Timer   <-- SCF
                                               per atom          (sec)   <-- SCF
------------------------------------------------------------------------ <-- SCF
Initial  -2.15373899E+002                                          1.09  <-- SCF
      1  -2.15377498E+002                    1.79943642E-003       1.14  <-- SCF
      2  -2.15377500E+002                    7.89608336E-007       1.22  <-- SCF
      3  -2.15377501E+002                    4.84558279E-007       1.30  <-- SCF
      4  -2.15377501E+002                    1.89890989E-007       1.36  <-- SCF
------------------------------------------------------------------------ <-- SCF

[...]

Calculating total energy with cut-off of  440.000eV.
------------------------------------------------------------------------ <-- SCF
SCF loop      Energy                           Energy gain       Timer   <-- SCF
                                               per atom          (sec)   <-- SCF
------------------------------------------------------------------------ <-- SCF
Initial  -2.15377506E+002                                          1.41  <-- SCF
      1  -2.15380846E+002                    1.67012736E-003       1.47  <-- SCF
      2  -2.15380847E+002                    6.00280607E-007       1.53  <-- SCF
      3  -2.15380848E+002                    4.16198472E-007       1.61  <-- SCF
      4  -2.15380848E+002                    1.68006910E-007       1.67  <-- SCF
------------------------------------------------------------------------ <-- SCF

[...]

 For future reference: finite basis dEtot/dlog(Ecut) =      -0.298888eV
 Total energy corrected for finite basis set =    -215.380966 eV

 ***************** Stress Tensor *****************
 *          Cartesian components (GPa)           *
 *             x             y             z     *
 *  x      2.520122      0.000000      0.000000  *
 *  y      0.000000      2.520122      0.000000  *
 *  z      0.000000      0.000000      2.520122  *
 *  Pressure:   -2.5201                          *
 BFGS: finished iteration     0 with enthalpy= -2.15380966E+002 eV

 +-----------+-----------------+-----------------+------------+-----+ <-- BFGS
 | Parameter |      value      |    tolerance    |    units   | OK? | <-- BFGS
 +-----------+-----------------+-----------------+------------+-----+ <-- BFGS
 |  dE/ion   |   0.000000E+000 |   2.000000E-005 |         eV | No  | <-- BFGS
 |   Smax    |   2.520122E+000 |   1.000000E-001 |        GPa | No  | <-- BFGS
 +-----------+-----------------+-----------------+------------+-----+ <-- BFGS

 Starting BFGS iteration          1 ...

 +------------+-------------+-------------+-----------------+ <-- min BFGS
 |    Step    |   lambda    |   F.delta'  |    enthalpy     | <-- min BFGS
 +------------+-------------+-------------+-----------------+ <-- min BFGS
 |  previous  |    0.000000 |    0.045325 |     -215.380966 | <-- min BFGS
 +------------+-------------+-------------+-----------------+ <-- min BFGS

 BFGS: starting iteration         1 with trial guess (lambda=  1.000000)

[...]

------------------------------------------------------------------------ <-- SCF
SCF loop      Energy                           Energy gain       Timer   <-- SCF
                                               per atom          (sec)   <-- SCF
------------------------------------------------------------------------ <-- SCF
Initial  -2.15383632E+002                                          1.77  <-- SCF
      1  -2.15384592E+002                    4.79858739E-004       1.83  <-- SCF
      2  -2.15384600E+002                    3.88942098E-006       1.91  <-- SCF
      3  -2.15384504E+002                   -4.79042343E-005       1.97  <-- SCF
      4  -2.15384458E+002                   -2.29723893E-005       2.03  <-- SCF
      5  -2.15384459E+002                    6.58435818E-007       2.09  <-- SCF
      6  -2.15384459E+002                    1.77387600E-009       2.16  <-- SCF
------------------------------------------------------------------------ <-- SCF

[...]

 ***************** Stress Tensor *****************
 *          Cartesian components (GPa)           *
 *             x             y             z     *
 *  x      2.189077      0.000000      0.000000  *
 *  y      0.000000      2.189077      0.000000  *
 *  z      0.000000      0.000000      2.189077  *
 *  Pressure:   -2.1891                          *

 +------------+-------------+-------------+-----------------+ <-- min BFGS
 |    Step    |   lambda    |   F.delta'  |    enthalpy     | <-- min BFGS
 +------------+-------------+-------------+-----------------+ <-- min BFGS
 |  previous  |    0.000000 |    0.045325 |     -215.380966 | <-- min BFGS
 | trial step |    1.000000 |    0.039239 |     -215.384340 | <-- min BFGS
 +------------+-------------+-------------+-----------------+ <-- min BFGS

 BFGS: improving iteration         1 with line minimization (lambda=  7.447303)

[...]

 +------------+-------------+-------------+-----------------+ <-- min BFGS
 |    Step    |   lambda    |   F.delta'  |    enthalpy     | <-- min BFGS
 +------------+-------------+-------------+-----------------+ <-- min BFGS
 |  previous  |    0.000000 |    0.045325 |     -215.380966 | <-- min BFGS
 | trial step |    1.000000 |    0.039239 |     -215.384340 | <-- min BFGS
 |  line step |    7.447303 |   -0.003478 |     -215.393588 | <-- min BFGS
 +------------+-------------+-------------+-----------------+ <-- min BFGS

 BFGS: finished iteration     1 with enthalpy= -2.15393588E+002 eV

 +-----------+-----------------+-----------------+------------+-----+ <-- BFGS
 | Parameter |      value      |    tolerance    |    units   | OK? | <-- BFGS
 +-----------+-----------------+-----------------+------------+-----+ <-- BFGS
 |  dE/ion   |   6.311109E-003 |   2.000000E-005 |         eV | No  | <-- BFGS
 |   Smax    |   1.983158E-001 |   1.000000E-001 |        GPa | No  | <-- BFGS
 +-----------+-----------------+-----------------+------------+-----+ <-- BFGS

[...]

 +-----------+-----------------+-----------------+------------+-----+ <-- BFGS
 | Parameter |      value      |    tolerance    |    units   | OK? | <-- BFGS
 +-----------+-----------------+-----------------+------------+-----+ <-- BFGS
 |  dE/ion   |   3.003645E-005 |   2.000000E-005 |         eV | No  | <-- BFGS
 |   Smax    |   3.505384E-004 |   1.000000E-001 |        GPa | Yes | <-- BFGS
 +-----------+-----------------+-----------------+------------+-----+ <-- BFGS

 Starting BFGS iteration          3 ...

 +------------+-------------+-------------+-----------------+ <-- min BFGS
 |    Step    |   lambda    |   F.delta'  |    enthalpy     | <-- min BFGS
 +------------+-------------+-------------+-----------------+ <-- min BFGS
 |  previous  |    0.000000 |  6.159E-006 |     -215.393648 | <-- min BFGS
 +------------+-------------+-------------+-----------------+ <-- min BFGS

 BFGS: starting iteration         3 with trial guess (lambda=  1.000000)

[...]

------------------------------------------------------------------------ <-- SCF
SCF loop      Energy                           Energy gain       Timer   <-- SCF
                                               per atom          (sec)   <-- SCF
------------------------------------------------------------------------ <-- SCF
Initial  -2.15393567E+002                                          3.52  <-- SCF
      1  -2.15393563E+002                   -2.02960397E-006       3.56  <-- SCF
      2  -2.15393563E+002                    4.05923134E-009       3.62  <-- SCF
      3  -2.15393563E+002                    1.55546468E-009       3.69  <-- SCF
      4  -2.15393563E+002                    6.74254627E-010       3.77  <-- SCF
------------------------------------------------------------------------ <-- SCF

Final energy =  -215.3935630933     eV
(energy not corrected for finite basis set)

 ***************** Stress Tensor *****************
 *          Cartesian components (GPa)           *
 *             x             y             z     *
 *  x      0.001321      0.000000      0.000000  *
 *  y      0.000000      0.001321      0.000000  *
 *  z      0.000000      0.000000      0.001321  *
 *  Pressure:   -0.0013                          *

 +------------+-------------+-------------+-----------------+ <-- min BFGS
 |    Step    |   lambda    |   F.delta'  |    enthalpy     | <-- min BFGS
 +------------+-------------+-------------+-----------------+ <-- min BFGS
 |  previous  |    0.000000 |  6.159E-006 |     -215.393648 | <-- min BFGS
 | trial step |    1.000000 |   -0.000023 |     -215.393648 | <-- min BFGS
 +------------+-------------+-------------+-----------------+ <-- min BFGS

 BFGS: finished iteration     3 with enthalpy= -2.15393648E+002 eV

 +-----------+-----------------+-----------------+------------+-----+ <-- BFGS
 | Parameter |      value      |    tolerance    |    units   | OK? | <-- BFGS
 +-----------+-----------------+-----------------+------------+-----+ <-- BFGS
 |  dE/ion   |   2.003458E-008 |   2.000000E-005 |         eV | Yes | <-- BFGS
 |   Smax    |   1.320901E-003 |   1.000000E-001 |        GPa | Yes | <-- BFGS
 +-----------+-----------------+-----------------+------------+-----+ <-- BFGS

 BFGS: Geometry optimization completed successfully.

 BFGS: Final Configuration:

                                      Unit Cell
        Real Lattice(A)              Reciprocal Lattice(1/A)
   0.0000000   2.7958833   2.7958833       -1.1236494   1.1236494   1.1236494
   2.7958833  -0.0000000   2.7958833        1.1236494  -1.1236494   1.1236494
   2.7958833   2.7958833   0.0000000        1.1236494   1.1236494  -1.1236494

                       Lattice parameters(A)       Cell Angles
                    a =    3.953976          alpha =   60.000000
                    b =    3.953976          beta  =   60.000000
                    c =    3.953976          gamma =   60.000000

                Current cell volume =   43.710637 A**3

 BFGS: Final Enthalpy     = -2.15393648E+002 eV
 BFGS: Final bulk modulus =      86.65985 GPa

 ***************************** Symmetrised Forces *****************************
 *                        Cartesian components (eV/A)                         *
 *                   x                    y                    z              *
 * Ge        1      0.00000              0.00000              0.00000         *
 * Ge        2      0.00000              0.00000              0.00000         *

 *********** Symmetrised Stress Tensor ***********
 *          Cartesian components (GPa)           *
 *             x             y             z     *
 *  x      0.001321      0.000000      0.000000  *
 *  y      0.000000      0.001321      0.000000  *
 *  z      0.000000      0.000000      0.001321  *
 *  Pressure:   -0.0013                          *

Writing analysis data to Ge.castep_bin

Writing model to Ge.check

 A BibTeX formatted list of references used in this run has been written to
 Ge.bib

Initialisation time =      0.17 s
Calculation time    =      3.55 s
Finalisation time   =      0.06 s
Total time          =      3.78 s

Overall parallel efficiency rating: Very good (88%)

Data was distributed by:-
k-point (2-way); efficiency rating: Excellent (92%)

Parallel notes:
1) Calculation only took 3.8 s, so efficiency estimates may be inaccurate.