 | Materials Studio CASTEP version 2017            |
 | Ab Initio Total Energy Program                  |
 | Authors:                                        |
 | M. Segall, M. Probert, C. Pickard, P. Hasnip,   |
 | S. Clark, K. Refson, J. R. Yates, M. Payne      |
 | Contributors:                                   |
 | P. Lindan, P. Haynes, J. White, V. Milman,      |
 | N. Govind, M. Gibson, P. Tulip, V. Cocula,      |
 | B. Montanari, D. Quigley, M. Glover,            |
 | L. Bernasconi, A. Perlov, M. Plummer,           |
 | E. McNellis, J. Meyer, J. Gale, D. Jochym       |
 | J. Aarons, B. Walker, R. Gillen, D. Jones       |
 | T. Green, I. J. Bush, C. J. Armstrong,          |
 | E. J. Higgins, E. L. Brown, M. S. McFly         |
 | Copyright (c) 2000 - 2016                       |
 | Please cite                                     |
 |     "First principles methods using CASTEP"     |
 |         Zeitschrift fuer Kristallographie       |
 |           220(5-6) pp. 567-570 (2005)           |
 | S. J. Clark, M. D. Segall, C. J. Pickard,       |
 | P. J. Hasnip, M. J. Probert, K. Refson,         |
 | M. C. Payne                                     |
 |       in all publications arising from          |
 |              your use of CASTEP                 |

 This version was compiled for x86_64-windows-msvc2008 on May 05 2016
 Intel(R) Math Kernel Library Version 11.1.2
 Fundamental constants values: CODATA 2010

 Atomic calculation performed for Pd:

 Converged in 117 iterations to an ae energy of -137306.547 eV

 Identity difference: 4.15E-03

 Warning: ion_atom_descreen_psp: negative charge density encountered
   | Pseudopotential Report - Date of generation 23-08-2019   |
   | Element: Pd Ionic charge: 18.00 Level of theory: PBE     |
   | Atomic Solver: Koelling-Harmon                           |
   |               Reference Electronic Structure             |
   |         Orbital         Occupation         Energy        |
   |            4s              2.000           -3.024        |
   |            4p              6.000           -1.769        |
   |            4d             10.000           -0.035        |
   |            5s              0.500           -0.024        |
   |                 Pseudopotential Definition               |
   |        Beta     l      e      Rc     scheme   norm       |
   |          1      0   -3.024   1.602     qc      0         |
   |          2      0   -0.024   1.602     qc      0         |
   |          3      0    0.250   1.602     qc      0         |
   |          4      1   -1.769   1.602     qc      0         |
   |          5      1    0.250   1.602     qc      0         |
   |          6      2   -0.035   1.602     qc      0         |
   |          7      2    0.250   1.602     qc      0         |
   |         loc     3    0.000   1.602     pn      0         |
   | Augmentation charge Rinner = 1.120                       |
   | Partial core correction Rc = 1.120                       |
   | "3|1.6|15|18.8|20.6|40U:50UU:41UU:42UU{5s0.5}(qc=7)[]"   |
   |      Author: Chris J. Pickard, Cambridge University      |

 Doing a self consistent calculation for the test configuration

 Atomic calculation performed for Pd:

 Converged in 117 iterations to an ae energy of -137306.547 eV

 AE eigenvalue nl 10 =     -887.98549682
 AE eigenvalue nl 20 =     -129.55227025
 AE eigenvalue nl 21 =     -116.13666558
 AE eigenvalue nl 30 =      -23.26518136
 AE eigenvalue nl 31 =      -18.85550066
 AE eigenvalue nl 32 =      -11.85263732
 AE eigenvalue nl 40 =       -3.02406957
 AE eigenvalue nl 41 =       -1.76878223
 AE eigenvalue nl 42 =       -0.03486337
 AE eigenvalue nl 50 =       -0.02425157
 PS eigenvalue nl 40 =       -3.02359467
 PS eigenvalue nl 41 =       -1.76832424
 PS eigenvalue nl 42 =       -0.03448227
 PS eigenvalue nl 50 =       -0.02391477
 Maximum eigenvalue error:   4.75E-04

 Derived cutoff energies: C=  14 M=  16 F=  20 E=  22

 Pseudo atomic calculation performed for Pd 4s2 4p6 4d10 5s0.5

 Converged in 51 iterations to a total energy of -3466.6328 eV

 Calculation parallelised over 2 processes.
 Data is distributed by k-point(2-way)

 ************************************ Title ************************************
 CASTEP calculation from Materials Studio

 ***************************** General Parameters ******************************

 output verbosity                               : normal  (1)
 write checkpoint data to                       : Pd__1_1_0_.check
 type of calculation                            : geometry optimization
 stress calculation                             : off
 density difference calculation                 : off
 electron localisation func (ELF) calculation   : off
 Hirshfeld analysis                             : off
 unlimited duration calculation
 timing information                             : on
 write final potential to formatted file        : off
 write final density to formatted file          : off
 write BibTeX reference list                    : on
 write OTFG pseudopotential files               : on
 checkpoint writing                             : both castep_bin and check files

 output         length unit                     : A
 output           mass unit                     : amu
 output           time unit                     : ps
 output         charge unit                     : e
 output           spin unit                     : hbar/2
 output         energy unit                     : eV
 output          force unit                     : eV/A
 output       velocity unit                     : A/ps
 output       pressure unit                     : GPa
 output     inv_length unit                     : 1/A
 output      frequency unit                     : cm-1
 output force constant unit                     : eV/A**2
 output         volume unit                     : A**3
 output   IR intensity unit                     : (D/A)**2/amu
 output         dipole unit                     : D
 output         efield unit                     : eV/A/e
 output        entropy unit                     : J/mol/K

 wavefunctions paging                           : none
 random number generator seed                   : randomised (143911687)
 data distribution                              : optimal for this architecture

 *********************** Exchange-Correlation Parameters ***********************

 using functional                               : Perdew Burke Ernzerhof
 relativistic treatment                         : Koelling-Harmon
 DFT+D: Semi-empirical dispersion correction    : off

 ************************* Pseudopotential Parameters **************************

 pseudopotential representation                 : reciprocal space
 <beta|phi> representation                      : reciprocal space
 spin-orbit coupling                            : off

 **************************** Basis Set Parameters *****************************

 plane wave basis set cut-off                   :   300.0000   eV
 size of standard grid                          :     1.5000
 size of   fine   gmax                          :    13.3104   1/A
 largest prime factor in FFT                    :          5
 finite basis set correction                    : none

 **************************** Electronic Parameters ****************************

 number of  electrons                           :  54.00
 net charge of system                           :  0.000
 treating system as non-spin-polarized
 number of bands                                :         33

 ********************* Electronic Minimization Parameters **********************

 Method: Treating system as metallic with density mixing treatment of electrons,
         and number of  SD  steps               :          1
         and number of  CG  steps               :          4

 total energy / atom convergence tol.           : 0.1000E-04   eV
 eigen-energy convergence tolerance             : 0.9091E-06   eV
 max force / atom convergence tol.              : ignored
 convergence tolerance window                   :          3   cycles
 max. number of SCF cycles                      :        100
 number of fixed-spin iterations                :         10
 smearing scheme                                : Gaussian
 smearing width                                 : 0.1000       eV
 Fermi energy convergence tolerance             : 0.2721E-13   eV
 periodic dipole correction                     : NONE

 ************************** Density Mixing Parameters **************************

 density-mixing scheme                          : Pulay
 max. length of mixing history                  :         20
 charge density mixing amplitude                : 0.5000
 cut-off energy for mixing                      :  300.0       eV
 charge density mixing g-vector                 :  1.500       1/A

 ********************** Geometry Optimization Parameters ***********************

 optimization method                            : BFGS
 variable cell method                           : fixed basis quality
 max. number of steps                           :        100
 estimated bulk modulus                         :  500.0       GPa
 estimated <frequency>                          :  1668.       cm-1
 geom line minimiser                            : on
 with line minimiser tolerance                  :     0.4000
 total energy convergence tolerance             : 0.5000E-04   eV/atom
        max ionic |force| tolerance             : 0.1000       eV/A
 max ionic |displacement| tolerance             : 0.5000E-02   A
   max |stress component| tolerance             : 0.2000       GPa
 convergence tolerance window                   :          2   steps
 backup results every                           :          5   steps

                                      Unit Cell
        Real Lattice(A)                      Reciprocal Lattice(1/A)
   3.9629381   0.0000000   0.0000000        1.5854866   0.0000000   0.0000000
   0.0000000   2.8022204   0.0000000        0.0000000   2.2422167   0.0000000
   0.0000000   0.0000000  10.8022204        0.0000000   0.0000000   0.5816568

                       Lattice parameters(A)       Cell Angles
                    a =    3.962938          alpha =   90.000000
                    b =    2.802220          beta  =   90.000000
                    c =   10.802220          gamma =   90.000000

                       Current cell volume =  119.958937       A**3

                                     Cell Contents
                         Total number of ions in cell =    3
                      Total number of species in cell =    1
                        Max number of any one species =    3

            x  Element    Atom        Fractional coordinates of atoms  x
            x            Number           u          v          w      x
            x  Pd           1         1.000000   1.000000   0.000000   x
            x  Pd           2         0.000000   0.000000   0.259412   x
            x  Pd           3         0.500000   0.500000   0.129706   x

                         No user defined ionic velocities

                                   Details of Species

                               Mass of species in AMU
                                    Pd  106.4000015

                          Electric Quadrupole Moment (Barn)
                                    Pd    0.6600000 Isotope105

                          Files used for pseudopotentials:
                                    Pd 3|1.6|15|18.8|20.6|40U:50UU:41UU:42UU{5s0.5}(qc=7)[]

                              k-Points For BZ Sampling
                       MP grid size for SCF calculation is  3  4  1
                            with an offset of   0.000  0.000  0.000
                       Number of kpoints used =             6

                               Symmetry and Constraints

                      Maximum deviation from symmetry =  0.00000         ANG

         There are no symmetry operations specified or generated for this cell
                      Number of ionic constraints     =           6
                      Point group of crystal =     1: C1, 1, 1
                      Space group of crystal =    47: Pmmm, -P 2 2

                         Centre of mass is NOT constrained
             Set iprint > 1 for details of linear ionic constraints

                         Number of cell constraints= 6
                         Cell constraints are:  0 0 0 0 0 0

                         External pressure/stress (GPa)
                          0.00000   0.00000   0.00000
                                    0.00000   0.00000
                                              0.00000

Final energy, E             =  -10409.18710933     eV
Final free energy (E-TS)    =  -10409.25598723     eV
(energies not corrected for finite basis set)

NB est. 0K energy (E-0.5TS)      =  -10409.22154828     eV

Writing analysis data to Pd__1_1_0_.castep_bin

Writing model to Pd__1_1_0_.check

 *********************************** Forces ***********************************
 *                        Cartesian components (eV/A)                         *
 *                   x                    y                    z              *
 * Pd        1     -0.00000(cons'd)     -0.00000(cons'd)      5.75189(cons'd) *
 * Pd        2      0.00000              0.00000             -1.50931         *
 * Pd        3      0.00000(cons'd)     -0.00000(cons'd)     -4.24258(cons'd) *
 BFGS: finished iteration     0 with enthalpy= -1.04092560E+004 eV

 +-----------+-----------------+-----------------+------------+-----+ <-- BFGS
 | Parameter |      value      |    tolerance    |    units   | OK? | <-- BFGS
 +-----------+-----------------+-----------------+------------+-----+ <-- BFGS
 |  dE/ion   |   0.000000E+000 |   5.000000E-005 |         eV | No  | <-- BFGS
 |  |F|max   |   1.509308E+000 |   1.000000E-001 |       eV/A | No  | <-- BFGS
 |  |dR|max  |   0.000000E+000 |   5.000000E-003 |          A | No  | <-- BFGS
 +-----------+-----------------+-----------------+------------+-----+ <-- BFGS

 Starting BFGS iteration          1 ...

 +------------+-------------+-------------+-----------------+ <-- min BFGS
 |    Step    |   lambda    |   F.delta'  |    enthalpy     | <-- min BFGS
 +------------+-------------+-------------+-----------------+ <-- min BFGS
 |  previous  |    0.000000 |    0.599156 |   -10409.255987 | <-- min BFGS
 +------------+-------------+-------------+-----------------+ <-- min BFGS

 BFGS: starting iteration         1 with trial guess (lambda=  1.000000)

                                     Cell Contents

[...]

------------------------------------------------------------------------ <-- SCF
SCF loop      Energy           Fermi           Energy gain       Timer   <-- SCF
                               energy          per atom          (sec)   <-- SCF
------------------------------------------------------------------------ <-- SCF
Initial  -1.04092264E+004  0.00000000E+000                        27.95  <-- SCF
      1  -1.04092625E+004  2.01293754E+000   1.20367462E-002      28.34  <-- SCF
      2  -1.04092625E+004  2.01293729E+000   6.69010061E-006      28.73  <-- SCF
      3  -1.04092625E+004  2.01220799E+000   1.33660378E-005      29.05  <-- SCF
      4  -1.04092625E+004  2.01210124E+000  -2.58677644E-005      29.39  <-- SCF
      5  -1.04092625E+004  2.01202491E+000   1.34180645E-005      29.72  <-- SCF
      6  -1.04092625E+004  2.01196529E+000  -1.61120158E-007      30.03  <-- SCF
      7  -1.04092625E+004  2.01177256E+000   1.27957226E-006      30.33  <-- SCF
------------------------------------------------------------------------ <-- SCF

[...]

 *********************************** Forces ***********************************
 *                        Cartesian components (eV/A)                         *
 *                   x                    y                    z              *
 * Pd        1      0.00000(cons'd)     -0.00000(cons'd)      5.69800(cons'd) *
 * Pd        2      0.00000              0.00000             -1.38026         *
 * Pd        3     -0.00000(cons'd)      0.00000(cons'd)     -4.31774(cons'd) *

 +------------+-------------+-------------+-----------------+ <-- min BFGS
 |    Step    |   lambda    |   F.delta'  |    enthalpy     | <-- min BFGS
 +------------+-------------+-------------+-----------------+ <-- min BFGS
 |  previous  |    0.000000 |    0.599156 |   -10409.255987 | <-- min BFGS
 | trial step |    1.000000 |    0.547929 |   -10409.262508 | <-- min BFGS
 +------------+-------------+-------------+-----------------+ <-- min BFGS

 BFGS: improving iteration         1 with line minimization (lambda= 11.695951)

[...]

 +------------+-------------+-------------+-----------------+ <-- min BFGS
 |    Step    |   lambda    |   F.delta'  |    enthalpy     | <-- min BFGS
 +------------+-------------+-------------+-----------------+ <-- min BFGS
 |  previous  |    0.000000 |    0.599156 |   -10409.255987 | <-- min BFGS
 | trial step |    1.000000 |    0.547929 |   -10409.262508 | <-- min BFGS
 |  line step |   11.695951 |    0.271979 |   -10409.319874 | <-- min BFGS
 +------------+-------------+-------------+-----------------+ <-- min BFGS

 BFGS: finished iteration     1 with enthalpy= -1.04093199E+004 eV

[...]

 BFGS: updated estimated <frequency>  = 369.09286 cm-1
 BFGS: finished iteration     2 with enthalpy= -1.04093720E+004 eV

[...]

 +-----------+-----------------+-----------------+------------+-----+ <-- BFGS
 | Parameter |      value      |    tolerance    |    units   | OK? | <-- BFGS
 +-----------+-----------------+-----------------+------------+-----+ <-- BFGS
 |  dE/ion   |   7.143408E-002 |   5.000000E-005 |         eV | No  | <-- BFGS
 |  |F|max   |   2.723594E-001 |   1.000000E-001 |       eV/A | No  | <-- BFGS
 |  |dR|max  |   3.442256E-002 |   5.000000E-003 |          A | No  | <-- BFGS
 +-----------+-----------------+-----------------+------------+-----+ <-- BFGS

[...]

 +-----------+-----------------+-----------------+------------+-----+ <-- BFGS
 | Parameter |      value      |    tolerance    |    units   | OK? | <-- BFGS
 +-----------+-----------------+-----------------+------------+-----+ <-- BFGS
 |  dE/ion   |   2.492565E-003 |   5.000000E-005 |         eV | No  | <-- BFGS
 |  |F|max   |   5.357040E-002 |   1.000000E-001 |       eV/A | Yes | <-- BFGS
 |  |dR|max  |   2.344271E-003 |   5.000000E-003 |          A | Yes | <-- BFGS
 +-----------+-----------------+-----------------+------------+-----+ <-- BFGS

[...]

 BFGS: improving iteration         6 with quad minimization (lambda=  0.779358)

[...]

 +------------+-------------+-------------+-----------------+ <-- min BFGS
 |    Step    |   lambda    |   F.delta'  |    enthalpy     | <-- min BFGS
 +------------+-------------+-------------+-----------------+ <-- min BFGS
 |  previous  |    0.000000 |    0.021266 |   -10409.812035 | <-- min BFGS
 | trial step |    1.000000 |   -0.006586 |   -10409.810882 | <-- min BFGS
 |  line step |    0.763537 |    0.000451 |   -10409.811159 | <-- min BFGS
 |  quad step |    0.779358 |   -0.001352 |   -10409.811140 | <-- min BFGS
 +------------+-------------+-------------+-----------------+ <-- min BFGS

 BFGS: reverting to earlier configuration and reseting inverse Hessian
 BFGS: finished iteration     6 with enthalpy= -1.04098120E+004 eV

[...]

 BFGS: improving iteration         7 with quad minimization (lambda=  0.347412)

[...]

 +------------+-------------+-------------+-----------------+ <-- min BFGS
 |    Step    |   lambda    |   F.delta'  |    enthalpy     | <-- min BFGS
 +------------+-------------+-------------+-----------------+ <-- min BFGS
 |  previous  |    0.000000 |    0.021266 |   -10409.812035 | <-- min BFGS
 | trial step |    1.000000 |   -0.041200 |   -10409.808959 | <-- min BFGS
 |  line step |    0.340441 |    0.000433 |   -10409.811012 | <-- min BFGS
 |  quad step |    0.347412 |   -0.003937 |   -10409.810992 | <-- min BFGS
 +------------+-------------+-------------+-----------------+ <-- min BFGS

 BFGS: reverting to earlier configuration and reseting inverse Hessian
 BFGS: finished iteration     7 with enthalpy= -1.04098120E+004 eV

[...]

 BFGS: Warning - Repeated consecutive reset of inverse Hessian
 BFGS:           without satisfying convergence criteria which
 BFGS:           looks like BFGS has run out of search directions.
 BFGS: Warning - Lets try allowing some uphill steps and see if
 BFGS:           we can get around this barrier.
 BFGS: Warning - It is possible that the system may now converge to
 BFGS:           a stationary point OTHER than the desired minimum.
 BFGS: Hint    - this may be an indication that either:
 BFGS:           a) you are using a poor guess at geom_frequency_est
 BFGS:           and/or geom_modulus_est, or
 BFGS:           b) you are using unrealistic convergence criteria.
 BFGS:           Suggest therefore that you consider changing them!

[...]

 BFGS: improving iteration         8 with line minimization (lambda=  0.007229)

[...]

 +------------+-------------+-------------+-----------------+ <-- min BFGS
 |    Step    |   lambda    |   F.delta'  |    enthalpy     | <-- min BFGS
 +------------+-------------+-------------+-----------------+ <-- min BFGS
 |  previous  |    0.000000 |    0.000433 |   -10409.811012 | <-- min BFGS
 | trial step |    1.000000 |   -0.059508 |   -10409.807866 | <-- min BFGS
 |  line step |    0.007229 |    0.000795 |   -10409.810985 | <-- min BFGS
 +------------+-------------+-------------+-----------------+ <-- min BFGS

[...]

 +-----------+-----------------+-----------------+------------+-----+ <-- BFGS
 | Parameter |      value      |    tolerance    |    units   | OK? | <-- BFGS
 +-----------+-----------------+-----------------+------------+-----+ <-- BFGS
 |  dE/ion   |   3.499579E-004 |   5.000000E-005 |         eV | No  | <-- BFGS
 |  |F|max   |   2.002603E-003 |   1.000000E-001 |       eV/A | Yes | <-- BFGS
 |  |dR|max  |   7.265338E-006 |   5.000000E-003 |          A | Yes | <-- BFGS
 +-----------+-----------------+-----------------+------------+-----+ <-- BFGS

 Starting BFGS iteration          9 ...

 +------------+-------------+-------------+-----------------+ <-- min BFGS
 |    Step    |   lambda    |   F.delta'  |    enthalpy     | <-- min BFGS
 +------------+-------------+-------------+-----------------+ <-- min BFGS
 |  previous  |    0.000000 |    0.000795 |   -10409.810985 | <-- min BFGS
 +------------+-------------+-------------+-----------------+ <-- min BFGS

 BFGS: starting iteration         9 with trial guess (lambda=  1.000000)

[...]

------------------------------------------------------------------------ <-- SCF
SCF loop      Energy           Fermi           Energy gain       Timer   <-- SCF
                               energy          per atom          (sec)   <-- SCF
------------------------------------------------------------------------ <-- SCF
Initial  -1.04097495E+004  0.00000000E+000                        65.84  <-- SCF
      1  -1.04098109E+004  2.13095945E+000   2.04501233E-002      66.09  <-- SCF
      2  -1.04098109E+004  2.13095945E+000   7.42200519E-008      66.33  <-- SCF
      3  -1.04098109E+004  2.13098698E+000   4.57645120E-007      66.58  <-- SCF
      4  -1.04098109E+004  2.13096073E+000  -1.14035926E-007      66.84  <-- SCF
------------------------------------------------------------------------ <-- SCF

Final energy, E             =  -10409.75624519     eV
Final free energy (E-TS)    =  -10409.81087704     eV
(energies not corrected for finite basis set)

NB est. 0K energy (E-0.5TS)      =  -10409.78356112     eV

[...]

 +------------+-------------+-------------+-----------------+ <-- min BFGS
 |    Step    |   lambda    |   F.delta'  |    enthalpy     | <-- min BFGS
 +------------+-------------+-------------+-----------------+ <-- min BFGS
 |  previous  |    0.000000 |    0.000795 |   -10409.810985 | <-- min BFGS
 | trial step |    1.000000 |   -0.006895 |   -10409.810877 | <-- min BFGS
 +------------+-------------+-------------+-----------------+ <-- min BFGS

 BFGS: finished iteration     9 with enthalpy= -1.04098109E+004 eV

 +-----------+-----------------+-----------------+------------+-----+ <-- BFGS
 | Parameter |      value      |    tolerance    |    units   | OK? | <-- BFGS
 +-----------+-----------------+-----------------+------------+-----+ <-- BFGS
 |  dE/ion   |   3.614578E-005 |   5.000000E-005 |         eV | Yes | <-- BFGS
 |  |F|max   |   1.736816E-002 |   1.000000E-001 |       eV/A | Yes | <-- BFGS
 |  |dR|max  |   3.757008E-005 |   5.000000E-003 |          A | Yes | <-- BFGS
 +-----------+-----------------+-----------------+------------+-----+ <-- BFGS

 BFGS: Geometry optimization completed successfully.

 BFGS: Final Configuration:

                                     Cell Contents

            x  Element    Atom        Fractional coordinates of atoms  x
            x            Number           u          v          w      x
            x  Pd           1         1.000000   1.000000   0.000000   x
            x  Pd           2         0.000000   0.000000   0.250875   x
            x  Pd           3         0.500000   0.500000   0.129706   x

 BFGS: Final Enthalpy     = -1.04098109E+004 eV
 BFGS: Final <frequency>  =     369.09286 cm-1

  *** There were at least     2 warnings during this run ***
  *** => please check the whole of this file carefully!  ***

 *********************************** Forces ***********************************
 *                        Cartesian components (eV/A)                         *
 *                   x                    y                    z              *
 * Pd        1     -0.00000(cons'd)      0.00000(cons'd)      4.49556(cons'd) *
 * Pd        2      0.00000             -0.00000             -0.01737         *
 * Pd        3     -0.00000(cons'd)      0.00000(cons'd)     -4.47819(cons'd) *

Writing analysis data to Pd__1_1_0_.castep_bin

Writing model to Pd__1_1_0_.check

 A BibTeX formatted list of references used in this run has been written to
 Pd__1_1_0_.bib

Initialisation time =     15.08 s
Calculation time    =     51.95 s
Finalisation time   =      0.05 s
Total time          =     67.08 s

Overall parallel efficiency rating: Very good (86%)

Data was distributed by:-
k-point (2-way); efficiency rating: Very good (88%)

Parallel notes:
1) Calculation only took 67.2 s, so efficiency estimates may be inaccurate.