 | Materials Studio CASTEP version 2017            |
 | Ab Initio Total Energy Program                  |
 | Authors:                                        |
 | M. Segall, M. Probert, C. Pickard, P. Hasnip,   |
 | S. Clark, K. Refson, J. R. Yates, M. Payne      |
 | Contributors:                                   |
 | P. Lindan, P. Haynes, J. White, V. Milman,      |
 | N. Govind, M. Gibson, P. Tulip, V. Cocula,      |
 | B. Montanari, D. Quigley, M. Glover,            |
 | L. Bernasconi, A. Perlov, M. Plummer,           |
 | E. McNellis, J. Meyer, J. Gale, D. Jochym       |
 | J. Aarons, B. Walker, R. Gillen, D. Jones       |
 | T. Green, I. J. Bush, C. J. Armstrong,          |
 | E. J. Higgins, E. L. Brown, M. S. McFly         |
 | Copyright (c) 2000 - 2016                       |
 | Please cite                                     |
 |     "First principles methods using CASTEP"     |
 |         Zeitschrift fuer Kristallographie       |
 |           220(5-6) pp. 567-570 (2005)           |
 | S. J. Clark, M. D. Segall, C. J. Pickard,       |
 | P. J. Hasnip, M. J. Probert, K. Refson,         |
 | M. C. Payne                                     |
 |       in all publications arising from          |
 |              your use of CASTEP                 |

 This version was compiled for x86_64-windows-msvc2008 on May 05 2016
 Intel(R) Math Kernel Library Version 11.1.2
 Fundamental constants values: CODATA 2010

 Pseudo atomic calculation performed for B 2s2 2p1

 Converged in 16 iterations to a total energy of -70.4540 eV

[...]

 Calculation parallelised over 8 processes.
 Data is distributed by G-vector(2-way) and k-point(4-way)

 ************************************ Title ************************************
 CASTEP calculation from Materials Studio

 ***************************** General Parameters ******************************

 output verbosity                               : normal  (1)
 write checkpoint data to                       : BN.check
 type of calculation                            : geometry optimization
 stress calculation                             : on
 density difference calculation                 : off
 electron localisation func (ELF) calculation   : off
 Hirshfeld analysis                             : on
 unlimited duration calculation
 timing information                             : on
 write final potential to formatted file        : off
 write final density to formatted file          : off
 write BibTeX reference list                    : on
 write OTFG pseudopotential files               : on
 checkpoint writing                             : both castep_bin and check files

 output         length unit                     : A
 output           mass unit                     : amu
 output           time unit                     : ps
 output         charge unit                     : e
 output           spin unit                     : hbar/2
 output         energy unit                     : eV
 output          force unit                     : eV/A
 output       velocity unit                     : A/ps
 output       pressure unit                     : GPa
 output     inv_length unit                     : 1/A
 output      frequency unit                     : cm-1
 output force constant unit                     : eV/A**2
 output         volume unit                     : A**3
 output   IR intensity unit                     : (D/A)**2/amu
 output         dipole unit                     : D
 output         efield unit                     : eV/A/e
 output        entropy unit                     : J/mol/K

 wavefunctions paging                           : none
 random number generator seed                   : randomised (192603189)
 data distribution                              : optimal for this architecture

 *********************** Exchange-Correlation Parameters ***********************

 using functional                               : Perdew Wang (1991)
 relativistic treatment                         : Koelling-Harmon
 DFT+D: Semi-empirical dispersion correction    : off

 ************************* Pseudopotential Parameters **************************

 pseudopotential representation                 : reciprocal space
 <beta|phi> representation                      : reciprocal space
 spin-orbit coupling                            : off

 **************************** Basis Set Parameters *****************************

 plane wave basis set cut-off                   :   250.0000   eV
 size of standard grid                          :     2.0000
 size of   fine   grid                          :     2.4000
 size of   fine   gmax                          :    19.4411   1/A
 largest prime factor in FFT                    :          5
 finite basis set correction                    : automatic
 number of sample energies                      :          3
           sample  spacing                      :     5.0000   eV

 **************************** Electronic Parameters ****************************

 number of  electrons                           :  8.000
 net charge of system                           :  0.000
 treating system as non-spin-polarized
 number of bands                                :          8

 ********************* Electronic Minimization Parameters **********************

 Method: Treating system as metallic with density mixing treatment of electrons,
         and number of  SD  steps               :          1
         and number of  CG  steps               :          4

 total energy / atom convergence tol.           : 0.1000E-05   eV
 eigen-energy convergence tolerance             : 0.2500E-06   eV
 max force / atom convergence tol.              : ignored
 convergence tolerance window                   :          3   cycles
 max. number of SCF cycles                      :        100
 number of fixed-spin iterations                :         10
 smearing scheme                                : Gaussian
 smearing width                                 : 0.1000       eV
 Fermi energy convergence tolerance             : 0.2721E-13   eV
 periodic dipole correction                     : NONE

 ************************** Density Mixing Parameters **************************

 density-mixing scheme                          : Pulay
 max. length of mixing history                  :         20
 charge density mixing amplitude                : 0.5000
 cut-off energy for mixing                      :  250.0       eV
 charge density mixing g-vector                 :  1.500       1/A

 *********************** Population Analysis Parameters ************************

 Population analysis with cutoff                :  3.000       A

 ********************** Geometry Optimization Parameters ***********************

 optimization method                            : BFGS
 variable cell method                           : fixed basis quality
 max. number of steps                           :        100
 estimated bulk modulus                         :  500.0       GPa
 estimated <frequency>                          :  1668.       cm-1
 geom line minimiser                            : on
 with line minimiser tolerance                  :     0.4000
 total energy convergence tolerance             : 0.1000E-04   eV/atom
        max ionic |force| tolerance             : 0.3000E-01   eV/A
 max ionic |displacement| tolerance             : 0.1000E-02   A
   max |stress component| tolerance             : 0.5000E-01   GPa
 convergence tolerance window                   :          2   steps
 backup results every                           :          5   steps

                                      Unit Cell
        Real Lattice(A)                      Reciprocal Lattice(1/A)
   0.0000000   1.8075000   1.8075000       -1.7380872   1.7380872   1.7380872
   1.8075000   0.0000000   1.8075000        1.7380872  -1.7380872   1.7380872
   1.8075000   1.8075000   0.0000000        1.7380872   1.7380872  -1.7380872

                       Lattice parameters(A)       Cell Angles
                    a =    2.556191          alpha =   60.000000
                    b =    2.556191          beta  =   60.000000
                    c =    2.556191          gamma =   60.000000

                       Current cell volume =   11.810408       A**3

                                     Cell Contents
                         Total number of ions in cell =    2
                      Total number of species in cell =    2
                        Max number of any one species =    1

            x  Element    Atom        Fractional coordinates of atoms  x
            x            Number           u          v          w      x
            x  B            1         0.000000   0.000000   0.000000   x
            x  N            1        -0.250000   0.750000  -0.250000   x

                         No user defined ionic velocities

                                   Details of Species

                               Mass of species in AMU
                                    B   10.8100004
                                    N   14.0070000

                          Electric Quadrupole Moment (Barn)
                                    B    0.0405900 Isotope 11
                                    N    0.0204400 Isotope 14

                          Files used for pseudopotentials:
                                    B B_00PBE.usp
                                    N N_00PBE.usp

                              k-Points For BZ Sampling
                       MP grid size for SCF calculation is  7  7  7
                            with an offset of   0.000  0.000  0.000
                       Number of kpoints used =            20

                               Symmetry and Constraints

                      Maximum deviation from symmetry = 0.117501E-14     ANG

                      Number of symmetry operations   =          24
         There are no ionic constraints specified or generated for this cell
                      Point group of crystal =    30: Td, -43m, -4 3 m
                      Space group of crystal =   216: F-43m, F -4 2 3

             Set iprint > 1 for details on symmetry rotations/translations

                         Centre of mass is NOT constrained

                         Number of cell constraints= 5
                         Cell constraints are:  1 1 1 0 0 0

                         External pressure/stress (GPa)
                          0.00000   0.00000   0.00000
                                    0.00000   0.00000
                                              0.00000

Final energy, E             =  -350.9709805063     eV
Final free energy (E-TS)    =  -350.9709805063     eV
(energies not corrected for finite basis set)

NB est. 0K energy (E-0.5TS)      =  -350.9709805063     eV

Calculating total energy with cut-off of  245.000eV.
------------------------------------------------------------------------ <-- SCF
SCF loop      Energy           Fermi           Energy gain       Timer   <-- SCF
                               energy          per atom          (sec)   <-- SCF
------------------------------------------------------------------------ <-- SCF
Initial  -3.50970729E+002  0.00000000E+000                         1.30  <-- SCF
      1  -3.51001021E+002  9.09252838E+000   1.51461311E-002       1.36  <-- SCF
      2  -3.51001053E+002  9.09252838E+000   1.57644538E-005       1.41  <-- SCF
      3  -3.51001049E+002  9.09688264E+000  -1.75573790E-006       1.47  <-- SCF
      4  -3.51001057E+002  9.09679513E+000   4.11829100E-006       1.53  <-- SCF
      5  -3.51001057E+002  9.09679902E+000  -2.63909371E-008       1.56  <-- SCF
      6  -3.51001057E+002  9.09675458E+000  -6.97831062E-009       1.61  <-- SCF
------------------------------------------------------------------------ <-- SCF

[...]

Calculating total energy with cut-off of  250.000eV.
------------------------------------------------------------------------ <-- SCF
SCF loop      Energy           Fermi           Energy gain       Timer   <-- SCF
                               energy          per atom          (sec)   <-- SCF
------------------------------------------------------------------------ <-- SCF
Initial  -3.51000803E+002  0.00000000E+000                         1.64  <-- SCF
      1  -3.51026505E+002  9.09674335E+000   1.28507551E-002       1.70  <-- SCF
      2  -3.51026535E+002  9.09674335E+000   1.51467732E-005       1.77  <-- SCF
      3  -3.51026537E+002  9.10016727E+000   8.10095883E-007       1.80  <-- SCF
      4  -3.51026544E+002  9.10026460E+000   3.76629542E-006       1.84  <-- SCF
      5  -3.51026544E+002  9.10023707E+000  -2.34152308E-008       1.88  <-- SCF
      6  -3.51026544E+002  9.10020061E+000  -3.53090651E-009       1.91  <-- SCF
------------------------------------------------------------------------ <-- SCF

[...]

 For future reference: finite basis dEtot/dlog(Ecut) =      -1.472339eV
 Total energy corrected for finite basis set =    -351.027755 eV

 ***************** Stress Tensor *****************
 *          Cartesian components (GPa)           *
 *             x             y             z     *
 *  x     -5.865205      0.000000      0.000000  *
 *  y      0.000000     -5.865205      0.000000  *
 *  z      0.000000      0.000000     -5.865205  *
 *  Pressure:    5.8652                          *
 BFGS: finished iteration     0 with enthalpy= -3.51027755E+002 eV

 +-----------+-----------------+-----------------+------------+-----+ <-- BFGS
 | Parameter |      value      |    tolerance    |    units   | OK? | <-- BFGS
 +-----------+-----------------+-----------------+------------+-----+ <-- BFGS
 |  dE/ion   |   0.000000E+000 |   1.000000E-005 |         eV | No  | <-- BFGS
 |   Smax    |   5.865205E+000 |   5.000000E-002 |        GPa | No  | <-- BFGS
 +-----------+-----------------+-----------------+------------+-----+ <-- BFGS

 Starting BFGS iteration          1 ...

 +------------+-------------+-------------+-----------------+ <-- min BFGS
 |    Step    |   lambda    |   F.delta'  |    enthalpy     | <-- min BFGS
 +------------+-------------+-------------+-----------------+ <-- min BFGS
 |  previous  |    0.000000 |    0.027520 |     -351.027755 | <-- min BFGS
 +------------+-------------+-------------+-----------------+ <-- min BFGS

 BFGS: starting iteration         1 with trial guess (lambda=  1.000000)

[...]

------------------------------------------------------------------------ <-- SCF
SCF loop      Energy           Fermi           Energy gain       Timer   <-- SCF
                               energy          per atom          (sec)   <-- SCF
------------------------------------------------------------------------ <-- SCF
Initial  -3.51010273E+002  0.00000000E+000                         1.98  <-- SCF
      1  -3.51033798E+002  8.80364622E+000   1.17623718E-002       2.05  <-- SCF
      2  -3.51033819E+002  8.80364583E+000   1.01740230E-005       2.11  <-- SCF
      3  -3.51027651E+002  8.93594862E+000  -3.08357894E-003       2.19  <-- SCF
      4  -3.51027596E+002  8.93812783E+000  -2.78671261E-005       2.25  <-- SCF
      5  -3.51027569E+002  8.94362532E+000  -1.32298297E-005       2.28  <-- SCF
      6  -3.51027569E+002  8.94348002E+000   1.08135380E-007       2.31  <-- SCF
      7  -3.51027569E+002  8.94358999E+000  -1.25778046E-009       2.34  <-- SCF
------------------------------------------------------------------------ <-- SCF

[...]

 ***************** Stress Tensor *****************
 *          Cartesian components (GPa)           *
 *             x             y             z     *
 *  x     -1.517999      0.000000      0.000000  *
 *  y      0.000000     -1.517999      0.000000  *
 *  z      0.000000      0.000000     -1.517999  *
 *  Pressure:    1.5180                          *

 +------------+-------------+-------------+-----------------+ <-- min BFGS
 |    Step    |   lambda    |   F.delta'  |    enthalpy     | <-- min BFGS
 +------------+-------------+-------------+-----------------+ <-- min BFGS
 |  previous  |    0.000000 |    0.027520 |     -351.027755 | <-- min BFGS
 | trial step |    1.000000 |    0.007178 |     -351.030795 | <-- min BFGS
 +------------+-------------+-------------+-----------------+ <-- min BFGS

 BFGS: finished iteration     1 with enthalpy= -3.51030795E+002 eV

[...]

 +-----------+-----------------+-----------------+------------+-----+ <-- BFGS
 | Parameter |      value      |    tolerance    |    units   | OK? | <-- BFGS
 +-----------+-----------------+-----------------+------------+-----+ <-- BFGS
 |  dE/ion   |   1.035701E-004 |   1.000000E-005 |         eV | No  | <-- BFGS
 |   Smax    |   1.177802E-001 |   5.000000E-002 |        GPa | No  | <-- BFGS
 +-----------+-----------------+-----------------+------------+-----+ <-- BFGS

 Starting BFGS iteration          3 ...

 +------------+-------------+-------------+-----------------+ <-- min BFGS
 |    Step    |   lambda    |   F.delta'  |    enthalpy     | <-- min BFGS
 +------------+-------------+-------------+-----------------+ <-- min BFGS
 |  previous  |    0.000000 |    0.000558 |     -351.031002 | <-- min BFGS
 +------------+-------------+-------------+-----------------+ <-- min BFGS

 BFGS: starting iteration         3 with trial guess (lambda=  1.000000)

[...]

------------------------------------------------------------------------ <-- SCF
SCF loop      Energy           Fermi           Energy gain       Timer   <-- SCF
                               energy          per atom          (sec)   <-- SCF
------------------------------------------------------------------------ <-- SCF
Initial  -3.51027606E+002  0.00000000E+000                         2.73  <-- SCF
      1  -3.51027871E+002  8.88024890E+000   1.32474388E-004       2.78  <-- SCF
      2  -3.51027871E+002  8.88024890E+000   1.58217094E-009       2.83  <-- SCF
      3  -3.51027865E+002  8.88417643E+000  -2.80443966E-006       2.89  <-- SCF
      4  -3.51027865E+002  8.88425161E+000   8.15422973E-008       2.92  <-- SCF
      5  -3.51027865E+002  8.88443313E+000   1.03702479E-009       2.95  <-- SCF
------------------------------------------------------------------------ <-- SCF

Final energy, E             =  -351.0278654788     eV
Final free energy (E-TS)    =  -351.0278654788     eV
(energies not corrected for finite basis set)

NB est. 0K energy (E-0.5TS)      =  -351.0278654788     eV

 ***************** Stress Tensor *****************
 *          Cartesian components (GPa)           *
 *             x             y             z     *
 *  x      0.026111     -0.000000      0.000000  *
 *  y     -0.000000      0.026111      0.000000  *
 *  z      0.000000      0.000000      0.026111  *
 *  Pressure:   -0.0261                          *

 +------------+-------------+-------------+-----------------+ <-- min BFGS
 |    Step    |   lambda    |   F.delta'  |    enthalpy     | <-- min BFGS
 +------------+-------------+-------------+-----------------+ <-- min BFGS
 |  previous  |    0.000000 |    0.000558 |     -351.031002 | <-- min BFGS
 | trial step |    1.000000 |   -0.000124 |     -351.031003 | <-- min BFGS
 +------------+-------------+-------------+-----------------+ <-- min BFGS

 BFGS: finished iteration     3 with enthalpy= -3.51031003E+002 eV

 +-----------+-----------------+-----------------+------------+-----+ <-- BFGS
 | Parameter |      value      |    tolerance    |    units   | OK? | <-- BFGS
 +-----------+-----------------+-----------------+------------+-----+ <-- BFGS
 |  dE/ion   |   3.060545E-007 |   1.000000E-005 |         eV | Yes | <-- BFGS
 |   Smax    |   2.611140E-002 |   5.000000E-002 |        GPa | Yes | <-- BFGS
 +-----------+-----------------+-----------------+------------+-----+ <-- BFGS

 BFGS: Geometry optimization completed successfully.

 BFGS: Final Configuration:

                                      Unit Cell
        Real Lattice(A)              Reciprocal Lattice(1/A)
   0.0000000   1.8172721   1.8172721       -1.7287410   1.7287410   1.7287410
   1.8172721  -0.0000000   1.8172721        1.7287410  -1.7287410   1.7287410
   1.8172721   1.8172721  -0.0000000        1.7287410   1.7287410  -1.7287410

                       Lattice parameters(A)       Cell Angles
                    a =    2.570011          alpha =   60.000000
                    b =    2.570011          beta  =   60.000000
                    c =    2.570011          gamma =   60.000000

                Current cell volume =   12.003001 A**3

 BFGS: Final Enthalpy     = -3.51031003E+002 eV
 BFGS: Final bulk modulus =    1057.19683 GPa

 ***************************** Symmetrised Forces *****************************
 *                        Cartesian components (eV/A)                         *
 *                   x                    y                    z              *
 * B         1      0.00000              0.00000              0.00000         *
 * N         1      0.00000              0.00000              0.00000         *

 *********** Symmetrised Stress Tensor ***********
 *          Cartesian components (GPa)           *
 *             x             y             z     *
 *  x      0.026111     -0.000000      0.000000  *
 *  y     -0.000000      0.026111      0.000000  *
 *  z      0.000000      0.000000      0.026111  *
 *  Pressure:   -0.0261                          *

[...]

 Pseudo atomic calculation performed for N 2s2 2p3

 Converged in 22 iterations to a total energy of -262.5877 eV

Charge spilling parameter for spin component 1 = 0.32%

     Atomic Populations (Mulliken)
Species   Ion     s      p      d      f     Total  Charge (e)
  B        1     0.66   1.72   0.00   0.00   2.38     0.62
  N        1     1.51   4.11   0.00   0.00   5.62    -0.62

            Bond              Population      Length (A)
          B 1 -- N 1               2.59        1.57380

     Hirshfeld Analysis
Species   Ion     Hirshfeld Charge (e)  Spin (hbar/2)
  B        1                 0.16        0.00
  N        1                -0.16        0.00

Writing analysis data to BN.castep_bin

Writing model to BN.check

 A BibTeX formatted list of references used in this run has been written to
 BN.bib

Initialisation time =      0.28 s
Calculation time    =      2.77 s
Finalisation time   =      0.03 s
Total time          =      3.08 s

Overall parallel efficiency rating: Mediocre (58%)

Data was distributed by:-
G-vector (2-way); efficiency rating: Satisfactory (68%)
k-point (4-way); efficiency rating: Very good (82%)

Parallel notes:
1) Calculation only took 3.2 s, so efficiency estimates may be inaccurate.