 | Materials Studio CASTEP version 2017            |
 | Ab Initio Total Energy Program                  |
 | Authors:                                        |
 | M. Segall, M. Probert, C. Pickard, P. Hasnip,   |
 | S. Clark, K. Refson, J. R. Yates, M. Payne      |
 | Contributors:                                   |
 | P. Lindan, P. Haynes, J. White, V. Milman,      |
 | N. Govind, M. Gibson, P. Tulip, V. Cocula,      |
 | B. Montanari, D. Quigley, M. Glover,            |
 | L. Bernasconi, A. Perlov, M. Plummer,           |
 | E. McNellis, J. Meyer, J. Gale, D. Jochym       |
 | J. Aarons, B. Walker, R. Gillen, D. Jones       |
 | T. Green, I. J. Bush, C. J. Armstrong,          |
 | E. J. Higgins, E. L. Brown, M. S. McFly         |
 | Copyright (c) 2000 - 2016                       |
 | Please cite                                     |
 |     "First principles methods using CASTEP"     |
 |         Zeitschrift fuer Kristallographie       |
 |           220(5-6) pp. 567-570 (2005)           |
 | S. J. Clark, M. D. Segall, C. J. Pickard,       |
 | P. J. Hasnip, M. J. Probert, K. Refson,         |
 | M. C. Payne                                     |
 |       in all publications arising from          |
 |              your use of CASTEP                 |

 This version was compiled for x86_64-windows-msvc2008 on May 05 2016
 Intel(R) Math Kernel Library Version 11.1.2
 Fundamental constants values: CODATA 2010

 Atomic calculation performed for Al: 1s2 2s2 2p6 3s2 3p1

 Converged in 54 iterations to an ae energy of -6603.782 eV

 Identity difference: 7.22E-05

   | Pseudopotential Report - Date of generation 21-07-2019   |
   | Element: Al Ionic charge:  3.00 Level of theory: PBE     |
   | Atomic Solver: Koelling-Harmon                           |
   |               Reference Electronic Structure             |
   |         Orbital         Occupation         Energy        |
   |            3s              2.000           -0.285        |
   |            3p              1.000           -0.100        |
   |                 Pseudopotential Definition               |
   |        Beta     l      e      Rc     scheme   norm       |
   |          1      0   -0.285   2.000     qc      0         |
   |          2      0    0.250   2.000     qc      0         |
   |          3      1   -0.100   2.000     qc      0         |
   |          4      1    0.250   2.000     qc      0         |
   |          5      2    0.000   2.000     qc      0         |
   |          6      2    0.250   2.000     qc      0         |
   |         loc     3    0.000   2.000     pn      0         |
   | Augmentation charge Rinner = 1.398                       |
   | Partial core correction Rc = 1.398                       |
   | "3|2|3.5|5|7|30UU:31UU:32UU[]"                           |
   |      Author: Chris J. Pickard, Cambridge University      |

 Doing a self consistent calculation for the test configuration

 Atomic calculation performed for Al: 1s2 2s2 2p6 3s2 3p1

[...]

 AE eigenvalue nl 10 =      -55.53347827
 AE eigenvalue nl 20 =       -3.97499262
 AE eigenvalue nl 21 =       -2.55933606
 AE eigenvalue nl 30 =       -0.28491403
 AE eigenvalue nl 31 =       -0.09966789
 PS eigenvalue nl 30 =       -0.28483650
 PS eigenvalue nl 31 =       -0.09959186
 Maximum eigenvalue error:   7.75E-05

 Derived cutoff energies: C=   1 M=   2 F=   4 E=   6

 Atomic calculation performed for As: 1s2 2s2 2p6 3s2 3p6 3d10 4s2 4p3

[...]

 Identity difference: 1.25E-03

   | Pseudopotential Report - Date of generation 21-07-2019   |
   | Element: As Ionic charge: 15.00 Level of theory: PBE     |
   | Atomic Solver: Koelling-Harmon                           |
   |               Reference Electronic Structure             |
   |         Orbital         Occupation         Energy        |
   |            3d             10.000           -1.494        |
   |            4s              2.000           -0.533        |
   |            4p              3.000           -0.191        |
   |                 Pseudopotential Definition               |
   |        Beta     l      e      Rc     scheme   norm       |
   |          1      0   -0.533   2.004     qc      0         |
   |          2      0    0.250   2.004     qc      0         |
   |          3      1   -0.191   2.004     qc      0         |
   |          4      1    0.250   2.004     qc      0         |
   |          5      2   -1.494   2.004     qc      0         |
   |          6      2    0.250   2.004     qc      0         |
   |         loc     3    0.000   2.004     pn      0         |
   | Augmentation charge Rinner = 1.400                       |
   | Partial core correction Rc = 1.400                       |
   | "3|2|11|13|15|40UU:41UU:32UU(qc=6)[]"                    |
   |      Author: Chris J. Pickard, Cambridge University      |

 Doing a self consistent calculation for the test configuration

 Atomic calculation performed for As: 1s2 2s2 2p6 3s2 3p6 3d10 4s2 4p3

 Converged in 83 iterations to an ae energy of -61519.637 eV

 AE eigenvalue nl 10 =     -430.68412655
 AE eigenvalue nl 20 =      -54.63735653
 AE eigenvalue nl 21 =      -47.90835310
 AE eigenvalue nl 30 =       -6.99359359
 AE eigenvalue nl 31 =       -4.91255859
 AE eigenvalue nl 32 =       -1.49369723
 AE eigenvalue nl 40 =       -0.53265250
 AE eigenvalue nl 41 =       -0.19091343
 PS eigenvalue nl 32 =       -1.49282298
 PS eigenvalue nl 40 =       -0.53264789
 PS eigenvalue nl 41 =       -0.19090125
 Maximum eigenvalue error:   8.74E-04

 Derived cutoff energies: C=  10 M=  12 F=  12 E=  16

 Pseudo atomic calculation performed for Al 3s2 3p1

 Converged in 15 iterations to a total energy of -107.1301 eV

 Pseudo atomic calculation performed for As 3d10 4s2 4p3

 Converged in 24 iterations to a total energy of -2957.4236 eV

 Calculation parallelised over 6 processes.
 Data is distributed by k-point(6-way)

 ************************************ Title ************************************
 CASTEP calculation from Materials Studio

 ***************************** General Parameters ******************************

 output verbosity                               : normal  (1)
 write checkpoint data to                       : AlAs.check
 type of calculation                            : geometry optimization
 stress calculation                             : on
 density difference calculation                 : off
 electron localisation func (ELF) calculation   : off
 Hirshfeld analysis                             : off
 unlimited duration calculation
 timing information                             : on
 write final potential to formatted file        : off
 write final density to formatted file          : off
 write BibTeX reference list                    : on
 write OTFG pseudopotential files               : on
 checkpoint writing                             : both castep_bin and check files

 output         length unit                     : A
 output           mass unit                     : amu
 output           time unit                     : ps
 output         charge unit                     : e
 output           spin unit                     : hbar/2
 output         energy unit                     : eV
 output          force unit                     : eV/A
 output       velocity unit                     : A/ps
 output       pressure unit                     : GPa
 output     inv_length unit                     : 1/A
 output      frequency unit                     : cm-1
 output force constant unit                     : eV/A**2
 output         volume unit                     : A**3
 output   IR intensity unit                     : (D/A)**2/amu
 output         dipole unit                     : D
 output         efield unit                     : eV/A/e
 output        entropy unit                     : J/mol/K

 wavefunctions paging                           : none
 random number generator seed                   : randomised (161934315)
 data distribution                              : optimal for this architecture

 *********************** Exchange-Correlation Parameters ***********************

 using functional                               : Perdew Burke Ernzerhof
 relativistic treatment                         : Koelling-Harmon
 DFT+D: Semi-empirical dispersion correction    : off

 ************************* Pseudopotential Parameters **************************

 pseudopotential representation                 : reciprocal space
 <beta|phi> representation                      : reciprocal space
 spin-orbit coupling                            : off

 **************************** Basis Set Parameters *****************************

 plane wave basis set cut-off                   :   408.2000   eV
 size of standard grid                          :     1.7500
 size of   fine   grid                          :     2.1000
 size of   fine   gmax                          :    21.7367   1/A
 largest prime factor in FFT                    :          5
 finite basis set correction                    : automatic
 number of sample energies                      :          3
           sample  spacing                      :     5.0000   eV

 **************************** Electronic Parameters ****************************

 number of  electrons                           :  18.00
 net charge of system                           :  0.000
 treating system as non-spin-polarized
 number of bands                                :         13

 ********************* Electronic Minimization Parameters **********************

 Method: Treating system as metallic with density mixing treatment of electrons,
         and number of  SD  steps               :          1
         and number of  CG  steps               :          4

 total energy / atom convergence tol.           : 0.1000E-05   eV
 eigen-energy convergence tolerance             : 0.1538E-06   eV
 max force / atom convergence tol.              : ignored
 convergence tolerance window                   :          3   cycles
 max. number of SCF cycles                      :        100
 number of fixed-spin iterations                :         10
 smearing scheme                                : Gaussian
 smearing width                                 : 0.1000       eV
 Fermi energy convergence tolerance             : 0.2721E-13   eV
 periodic dipole correction                     : NONE

 ************************** Density Mixing Parameters **************************

 density-mixing scheme                          : Pulay
 max. length of mixing history                  :         20
 charge density mixing amplitude                : 0.5000
 cut-off energy for mixing                      :  408.2       eV
 charge density mixing g-vector                 :  1.500       1/A

 ********************** Geometry Optimization Parameters ***********************

 optimization method                            : BFGS
 variable cell method                           : fixed basis quality
 max. number of steps                           :        100
 estimated bulk modulus                         :  200.0       GPa
 estimated <frequency>                          :  1668.       cm-1
 geom line minimiser                            : on
 with line minimiser tolerance                  :     0.4000
 total energy convergence tolerance             : 0.1000E-04   eV/atom
        max ionic |force| tolerance             : 0.3000E-01   eV/A
 max ionic |displacement| tolerance             : 0.1000E-02   A
   max |stress component| tolerance             : 0.5000E-01   GPa
 convergence tolerance window                   :          2   steps
 backup results every                           :          5   steps

                                      Unit Cell
        Real Lattice(A)                      Reciprocal Lattice(1/A)
   0.0000000   2.8311000   2.8311000       -1.1096721   1.1096721   1.1096721
   2.8311000   0.0000000   2.8311000        1.1096721  -1.1096721   1.1096721
   2.8311000   2.8311000  -0.0000000        1.1096721   1.1096721  -1.1096721

                       Lattice parameters(A)       Cell Angles
                    a =    4.003780          alpha =   60.000000
                    b =    4.003780          beta  =   60.000000
                    c =    4.003780          gamma =   60.000000

                       Current cell volume =   45.383253       A**3

                                     Cell Contents
                         Total number of ions in cell =    2
                      Total number of species in cell =    2
                        Max number of any one species =    1

            x  Element    Atom        Fractional coordinates of atoms  x
            x            Number           u          v          w      x
            x  Al           1         0.000000   0.000000   0.000000   x
            x  As           1         0.250000   0.250000   0.250000   x

                         No user defined ionic velocities

                                   Details of Species

                               Mass of species in AMU
                                    Al   26.9820004
                                    As   74.9219971

                          Electric Quadrupole Moment (Barn)
                                    Al    0.1466000 Isotope 27
                                    As    0.3140000 Isotope 75

                          Files used for pseudopotentials:
                                    Al 3|2|3.5|5|7|30UU:31UU:32UU[]
                                    As 3|2|11|13|15|40UU:41UU:32UU(qc=6)[]

                              k-Points For BZ Sampling
                       MP grid size for SCF calculation is  8  8  8
                            with an offset of   0.000  0.000  0.000
                       Number of kpoints used =            60

                               Symmetry and Constraints

                      Maximum deviation from symmetry = 0.200000E-14     ANG

                      Number of symmetry operations   =          24
         There are no ionic constraints specified or generated for this cell
                      Point group of crystal =    30: Td, -43m, -4 3 m
                      Space group of crystal =   216: F-43m, F -4 2 3

             Set iprint > 1 for details on symmetry rotations/translations

                         Centre of mass is NOT constrained

                         Number of cell constraints= 5
                         Cell constraints are:  1 1 1 0 0 0

                         External pressure/stress (GPa)
                          0.00000   0.00000   0.00000
                                    0.00000   0.00000
                                              0.00000

Final energy, E             =  -3074.720904854     eV
Final free energy (E-TS)    =  -3074.720904854     eV
(energies not corrected for finite basis set)

NB est. 0K energy (E-0.5TS)      =  -3074.720904854     eV

Calculating total energy with cut-off of  403.200eV.
------------------------------------------------------------------------ <-- SCF
SCF loop      Energy           Fermi           Energy gain       Timer   <-- SCF
                               energy          per atom          (sec)   <-- SCF
------------------------------------------------------------------------ <-- SCF
Initial  -3.07472100E+003  0.00000000E+000                        29.36  <-- SCF
      1  -3.07472687E+003  4.10156840E+000   2.93504728E-003      29.91  <-- SCF
      2  -3.07472688E+003  4.10156840E+000   1.37165539E-006      30.62  <-- SCF
      3  -3.07472688E+003  4.10158737E+000  -5.92314877E-007      31.20  <-- SCF
      4  -3.07472688E+003  4.10163647E+000   2.73769904E-008      31.75  <-- SCF
------------------------------------------------------------------------ <-- SCF

[...]

Calculating total energy with cut-off of  408.200eV.
------------------------------------------------------------------------ <-- SCF
SCF loop      Energy           Fermi           Energy gain       Timer   <-- SCF
                               energy          per atom          (sec)   <-- SCF
------------------------------------------------------------------------ <-- SCF
Initial  -3.07472698E+003  0.00000000E+000                        32.36  <-- SCF
      1  -3.07473166E+003  4.10164259E+000   2.34265170E-003      32.88  <-- SCF
      2  -3.07473166E+003  4.10164258E+000   9.14510658E-007      33.50  <-- SCF
      3  -3.07473166E+003  4.10165074E+000  -4.93726660E-007      34.06  <-- SCF
      4  -3.07473166E+003  4.10167844E+000   2.42660127E-008      34.62  <-- SCF
------------------------------------------------------------------------ <-- SCF

[...]

 For future reference: finite basis dEtot/dlog(Ecut) =      -0.432324eV
 Total energy corrected for finite basis set =   -3074.731720 eV

 ***************** Stress Tensor *****************
 *          Cartesian components (GPa)           *
 *             x             y             z     *
 *  x     -2.440000      0.000000      0.000000  *
 *  y      0.000000     -2.440000      0.000000  *
 *  z      0.000000      0.000000     -2.440000  *
 *  Pressure:    2.4400                          *
 BFGS: finished iteration     0 with enthalpy= -3.07473172E+003 eV

 +-----------+-----------------+-----------------+------------+-----+ <-- BFGS
 | Parameter |      value      |    tolerance    |    units   | OK? | <-- BFGS
 +-----------+-----------------+-----------------+------------+-----+ <-- BFGS
 |  dE/ion   |   0.000000E+000 |   1.000000E-005 |         eV | No  | <-- BFGS
 |   Smax    |   2.440000E+000 |   5.000000E-002 |        GPa | No  | <-- BFGS
 +-----------+-----------------+-----------------+------------+-----+ <-- BFGS

 Starting BFGS iteration          1 ...

 +------------+-------------+-------------+-----------------+ <-- min BFGS
 |    Step    |   lambda    |   F.delta'  |    enthalpy     | <-- min BFGS
 +------------+-------------+-------------+-----------------+ <-- min BFGS
 |  previous  |    0.000000 |    0.043993 |    -3074.731720 | <-- min BFGS
 +------------+-------------+-------------+-----------------+ <-- min BFGS

 BFGS: starting iteration         1 with trial guess (lambda=  1.000000)

[...]

------------------------------------------------------------------------ <-- SCF
SCF loop      Energy           Fermi           Energy gain       Timer   <-- SCF
                               energy          per atom          (sec)   <-- SCF
------------------------------------------------------------------------ <-- SCF
Initial  -3.07471176E+003  0.00000000E+000                        37.83  <-- SCF
      1  -3.07475268E+003  4.02033178E+000   2.04587364E-002      38.36  <-- SCF
      2  -3.07475311E+003  4.02031669E+000   2.15809892E-004      39.28  <-- SCF
      3  -3.07473958E+003  4.02177707E+000  -6.76523002E-003      40.05  <-- SCF
      4  -3.07473862E+003  4.02406863E+000  -4.80850486E-004      40.89  <-- SCF
      5  -3.07473861E+003  4.02639865E+000  -5.20254406E-006      41.75  <-- SCF
      6  -3.07473861E+003  4.02771632E+000   2.36091691E-007      42.38  <-- SCF
      7  -3.07473861E+003  4.02766124E+000  -1.89221496E-007      42.95  <-- SCF
------------------------------------------------------------------------ <-- SCF

[...]

 ***************** Stress Tensor *****************
 *          Cartesian components (GPa)           *
 *             x             y             z     *
 *  x     -1.708390     -0.000000      0.000000  *
 *  y     -0.000000     -1.708390     -0.000000  *
 *  z      0.000000     -0.000000     -1.708390  *
 *  Pressure:    1.7084                          *

 +------------+-------------+-------------+-----------------+ <-- min BFGS
 |    Step    |   lambda    |   F.delta'  |    enthalpy     | <-- min BFGS
 +------------+-------------+-------------+-----------------+ <-- min BFGS
 |  previous  |    0.000000 |    0.043993 |    -3074.731720 | <-- min BFGS
 | trial step |    1.000000 |    0.031053 |    -3074.738685 | <-- min BFGS
 +------------+-------------+-------------+-----------------+ <-- min BFGS

 BFGS: improving iteration         1 with line minimization (lambda=  3.399815)

[...]

 +------------+-------------+-------------+-----------------+ <-- min BFGS
 |    Step    |   lambda    |   F.delta'  |    enthalpy     | <-- min BFGS
 +------------+-------------+-------------+-----------------+ <-- min BFGS
 |  previous  |    0.000000 |    0.043993 |    -3074.731720 | <-- min BFGS
 | trial step |    1.000000 |    0.031053 |    -3074.738685 | <-- min BFGS
 |  line step |    3.399815 |   -0.005219 |    -3074.743043 | <-- min BFGS
 +------------+-------------+-------------+-----------------+ <-- min BFGS

 BFGS: finished iteration     1 with enthalpy= -3.07474304E+003 eV

[...]

 +-----------+-----------------+-----------------+------------+-----+ <-- BFGS
 | Parameter |      value      |    tolerance    |    units   | OK? | <-- BFGS
 +-----------+-----------------+-----------------+------------+-----+ <-- BFGS
 |  dE/ion   |   2.016348E-004 |   1.000000E-005 |         eV | No  | <-- BFGS
 |   Smax    |   5.220811E-002 |   5.000000E-002 |        GPa | No  | <-- BFGS
 +-----------+-----------------+-----------------+------------+-----+ <-- BFGS

 Starting BFGS iteration          3 ...

 +------------+-------------+-------------+-----------------+ <-- min BFGS
 |    Step    |   lambda    |   F.delta'  |    enthalpy     | <-- min BFGS
 +------------+-------------+-------------+-----------------+ <-- min BFGS
 |  previous  |    0.000000 |    0.000965 |    -3074.743446 | <-- min BFGS
 +------------+-------------+-------------+-----------------+ <-- min BFGS

 BFGS: starting iteration         3 with trial guess (lambda=  1.000000)

[...]

 +------------+-------------+-------------+-----------------+ <-- min BFGS
 |    Step    |   lambda    |   F.delta'  |    enthalpy     | <-- min BFGS
 +------------+-------------+-------------+-----------------+ <-- min BFGS
 |  previous  |    0.000000 |    0.000965 |    -3074.743446 | <-- min BFGS
 | trial step |    1.000000 |   -0.001071 |    -3074.743412 | <-- min BFGS
 +------------+-------------+-------------+-----------------+ <-- min BFGS

 BFGS: improving iteration         3 with line minimization (lambda=  0.473919)

[...]

 +------------+-------------+-------------+-----------------+ <-- min BFGS
 |    Step    |   lambda    |   F.delta'  |    enthalpy     | <-- min BFGS
 +------------+-------------+-------------+-----------------+ <-- min BFGS
 |  previous  |    0.000000 |    0.000965 |    -3074.743446 | <-- min BFGS
 | trial step |    1.000000 |   -0.001071 |    -3074.743412 | <-- min BFGS
 |  line step |    0.473919 |   -0.001102 |    -3074.743444 | <-- min BFGS
 +------------+-------------+-------------+-----------------+ <-- min BFGS

 BFGS: improving iteration         3 with quad minimization (lambda= -0.038641)

[...]

------------------------------------------------------------------------ <-- SCF
SCF loop      Energy           Fermi           Energy gain       Timer   <-- SCF
                               energy          per atom          (sec)   <-- SCF
------------------------------------------------------------------------ <-- SCF
Initial  -3.07474357E+003  0.00000000E+000                        76.91  <-- SCF
      1  -3.07474349E+003  3.88049196E+000  -4.04431392E-005      77.42  <-- SCF
      2  -3.07474349E+003  3.88049195E+000   8.09124887E-008      77.98  <-- SCF
      3  -3.07474348E+003  3.88046634E+000  -5.22850941E-006      78.52  <-- SCF
      4  -3.07474348E+003  3.88039793E+000  -3.00416423E-007      79.08  <-- SCF
      5  -3.07474348E+003  3.88033110E+000   1.53286707E-008      79.62  <-- SCF
------------------------------------------------------------------------ <-- SCF

Final energy, E             =  -3074.743480350     eV
Final free energy (E-TS)    =  -3074.743480350     eV
(energies not corrected for finite basis set)

NB est. 0K energy (E-0.5TS)      =  -3074.743480350     eV

 ***************** Stress Tensor *****************
 *          Cartesian components (GPa)           *
 *             x             y             z     *
 *  x      0.034307      0.000000     -0.000000  *
 *  y      0.000000      0.034307      0.000000  *
 *  z     -0.000000      0.000000      0.034307  *
 *  Pressure:   -0.0343                          *

 +------------+-------------+-------------+-----------------+ <-- min BFGS
 |    Step    |   lambda    |   F.delta'  |    enthalpy     | <-- min BFGS
 +------------+-------------+-------------+-----------------+ <-- min BFGS
 |  previous  |    0.000000 |    0.000965 |    -3074.743446 | <-- min BFGS
 | trial step |    1.000000 |   -0.001071 |    -3074.743412 | <-- min BFGS
 |  line step |    0.473919 |   -0.001102 |    -3074.743444 | <-- min BFGS
 |  quad step |   -0.038641 |   -0.000634 |    -3074.743447 | <-- min BFGS
 +------------+-------------+-------------+-----------------+ <-- min BFGS

 BFGS: finished iteration     3 with enthalpy= -3.07474345E+003 eV

 +-----------+-----------------+-----------------+------------+-----+ <-- BFGS
 | Parameter |      value      |    tolerance    |    units   | OK? | <-- BFGS
 +-----------+-----------------+-----------------+------------+-----+ <-- BFGS
 |  dE/ion   |   5.514706E-008 |   1.000000E-005 |         eV | Yes | <-- BFGS
 |   Smax    |   3.430702E-002 |   5.000000E-002 |        GPa | Yes | <-- BFGS
 +-----------+-----------------+-----------------+------------+-----+ <-- BFGS

 BFGS: Geometry optimization completed successfully.

 BFGS: Final Configuration:

                                      Unit Cell
        Real Lattice(A)              Reciprocal Lattice(1/A)
  -0.0000000   2.8660667   2.8660667       -1.0961338   1.0961338   1.0961338
   2.8660667   0.0000000   2.8660667        1.0961338  -1.0961338   1.0961338
   2.8660667   2.8660667  -0.0000000        1.0961338   1.0961338  -1.0961338

                       Lattice parameters(A)       Cell Angles
                    a =    4.053230          alpha =   60.000000
                    b =    4.053230          beta  =   60.000000
                    c =    4.053230          gamma =   60.000000

                Current cell volume =   47.085684 A**3

 BFGS: Final Enthalpy     = -3.07474345E+003 eV
 BFGS: Final bulk modulus =     124.17127 GPa

 ***************************** Symmetrised Forces *****************************
 *                        Cartesian components (eV/A)                         *
 *                   x                    y                    z              *
 * Al        1      0.00000              0.00000              0.00000         *
 * As        1      0.00000              0.00000              0.00000         *

 *********** Symmetrised Stress Tensor ***********
 *          Cartesian components (GPa)           *
 *             x             y             z     *
 *  x      0.034307      0.000000     -0.000000  *
 *  y      0.000000      0.034307      0.000000  *
 *  z     -0.000000      0.000000      0.034307  *
 *  Pressure:   -0.0343                          *

Writing analysis data to AlAs.castep_bin

Writing model to AlAs.check

 A BibTeX formatted list of references used in this run has been written to
 AlAs.bib

Initialisation time =     16.11 s
Calculation time    =     66.38 s
Finalisation time   =      0.11 s
Total time          =     82.59 s

Overall parallel efficiency rating: Very good (83%)

Data was distributed by:-
k-point (6-way); efficiency rating: Very good (84%)

Parallel notes:
1) Calculation only took 82.6 s, so efficiency estimates may be inaccurate.